*SPEF "1481-1998"
*DESIGN "Duplex"
*DATE "Fri Feb 13 01:52:41 2026"
*VENDOR "Synopsys, Inc."
*PROGRAM "icc2 /usr/synopsys/icc2/U-2022.12-SP3/linux64/nwtn/bin/icc2_exec"
*VERSION "U-2022.12-SP3 Apr 18, 2023"
*DESIGN_FLOW "ICC2 SPEF DR"
*DIVIDER /
*DELIMITER :
*BUS_DELIMITER [ ]
*T_UNIT 1 NS
*C_UNIT 1 FF
*R_UNIT 1 OHM
*L_UNIT 1 HENRY

// XY_UNIT 1 UM
// PARASITIC_TECH tlup_max at -40.000 degree

*PORTS

reset_n I *C 0.143 22.188
send I *C 37.849 22.796
clock I *C 37.849 22.188
parity_type[1] I *C 0.143 35.564
parity_type[0] I *C 0.143 8.204
baud_rate[1] I *C 37.849 29.180
baud_rate[0] I *C 37.849 29.788
data_in[7] I *C 37.849 31.916
data_in[6] I *C 37.849 17.020
data_in[5] I *C 0.143 11.852
data_in[4] I *C 37.849 32.524
data_in[3] I *C 37.849 33.132
data_in[2] I *C 37.849 33.740
data_in[1] I *C 37.849 34.348
data_in[0] I *C 37.849 35.564
tx_active_flag O *C 37.849 3.036
tx_done_flag O *C 0.143 13.980
rx_active_flag O *C 0.143 20.972
rx_done_flag O *C 37.849 3.644
data_out[7] O *C 0.143 7.292
data_out[6] O *C 0.143 23.100
data_out[5] O *C 37.849 10.028
data_out[4] O *C 0.143 16.412
data_out[3] O *C 37.849 31.004
data_out[2] O *C 37.849 34.956
data_out[1] O *C 0.143 9.420
data_out[0] O *C 37.849 24.924
error_flag[2] O *C 37.849 30.396
error_flag[1] O *C 0.143 10.028
error_flag[0] O *C 37.849 23.404
VDD I *C 18.996 18.600
VSS I *C 18.996 19.500

*D_NET Reciever/Unit1/HFSNET_0 4.761608 //LENGTH 56.638 LUMPCC 0 DR

*CONN
*I Reciever\/Unit1\/HFSBUF_344_0:Y O *L 0 *C 11.396 29.332
*I Reciever\/Unit1\/U24:A2 I *L 0.529633 *C 9.876 27.964
*I Reciever\/Unit1\/U20:A2 I *L 0.529633 *C 1.364 32.828
*I Reciever\/Unit1\/U19:A2 I *L 0.529633 *C 1.212 34.652
*I Reciever\/Unit1\/U18:A2 I *L 0.529633 *C 12.612 36.172
*I Reciever\/Unit1\/U16:A2 I *L 0.529633 *C 13.220 34.652
*I Reciever\/Unit1\/U17:A2 I *L 0.529633 *C 0.908 36.172
*I Reciever\/Unit1\/U21:A2 I *L 0.529633 *C 3.796 27.964
*I Reciever\/Unit1\/U23:A2 I *L 0.529633 *C 3.644 21.276
*I Reciever\/Unit1\/U3:A2 I *L 0.973269 *C 11.852 21.276
*I Reciever\/Unit1\/U25:A2 I *L 0.529633 *C 12.156 22.796
*I Reciever\/Unit1\/U22:A2 I *L 0.529633 *C 3.796 24.620
*N Reciever/Unit1/HFSNET_0:12 *C 3.796 24.634
*N Reciever/Unit1/HFSNET_0:13 *C 12.156 22.783
*N Reciever/Unit1/HFSNET_0:14 *C 12.156 21.580
*N Reciever/Unit1/HFSNET_0:15 *C 12.004 21.580
*N Reciever/Unit1/HFSNET_0:16 *C 11.853 21.276
*N Reciever/Unit1/HFSNET_0:17 *C 12.004 21.290
*N Reciever/Unit1/HFSNET_0:18 *C 11.991 21.276
*N Reciever/Unit1/HFSNET_0:19 *C 3.644 21.458
*N Reciever/Unit1/HFSNET_0:20 *C 3.644 21.289
*N Reciever/Unit1/HFSNET_0:21 *C 3.644 21.276
*N Reciever/Unit1/HFSNET_0:22 *C 3.354 21.276
*N Reciever/Unit1/HFSNET_0:23 *C 3.340 21.290
*N Reciever/Unit1/HFSNET_0:24 *C 3.340 24.924
*N Reciever/Unit1/HFSNET_0:25 *C 3.796 24.924
*N Reciever/Unit1/HFSNET_0:26 *C 3.796 27.964
*N Reciever/Unit1/HFSNET_0:27 *C 3.948 27.909
*N Reciever/Unit1/HFSNET_0:28 *C 3.948 28.268
*N Reciever/Unit1/HFSNET_0:29 *C 3.796 28.268
*N Reciever/Unit1/HFSNET_0:30 *C 0.908 36.159
*N Reciever/Unit1/HFSNET_0:31 *C 13.220 34.666
*N Reciever/Unit1/HFSNET_0:32 *C 13.220 35.247
*N Reciever/Unit1/HFSNET_0:33 *C 13.207 35.260
*N Reciever/Unit1/HFSNET_0:34 *C 12.612 35.260
*N Reciever/Unit1/HFSNET_0:35 *C 12.612 36.159
*N Reciever/Unit1/HFSNET_0:36 *C 12.612 35.578
*N Reciever/Unit1/HFSNET_0:37 *C 12.612 35.563
*N Reciever/Unit1/HFSNET_0:38 *C 7.596 35.564
*N Reciever/Unit1/HFSNET_0:39 *C 7.596 36.172
*N Reciever/Unit1/HFSNET_0:40 *C 1.516 36.172
*N Reciever/Unit1/HFSNET_0:41 *C 1.516 35.868
*N Reciever/Unit1/HFSNET_0:42 *C 0.922 35.868
*N Reciever/Unit1/HFSNET_0:43 *C 0.908 35.868
*N Reciever/Unit1/HFSNET_0:44 *C 1.212 35.868
*N Reciever/Unit1/HFSNET_0:45 *C 1.212 34.666
*N Reciever/Unit1/HFSNET_0:46 *C 1.226 34.652
*N Reciever/Unit1/HFSNET_0:47 *C 1.503 34.652
*N Reciever/Unit1/HFSNET_0:48 *C 1.516 34.639
*N Reciever/Unit1/HFSNET_0:49 *C 1.364 32.842
*N Reciever/Unit1/HFSNET_0:50 *C 1.364 33.132
*N Reciever/Unit1/HFSNET_0:51 *C 1.516 33.132
*N Reciever/Unit1/HFSNET_0:52 *C 1.516 29.485
*N Reciever/Unit1/HFSNET_0:53 *C 1.517 29.484
*N Reciever/Unit1/HFSNET_0:54 *C 3.631 29.484
*N Reciever/Unit1/HFSNET_0:55 *C 3.644 29.471
*N Reciever/Unit1/HFSNET_0:56 *C 3.644 28.268
*N Reciever/Unit1/HFSNET_0:57 *C 3.658 28.268
*N Reciever/Unit1/HFSNET_0:58 *C 9.876 27.978
*N Reciever/Unit1/HFSNET_0:59 *C 9.876 28.255
*N Reciever/Unit1/HFSNET_0:60 *C 9.876 28.268
*N Reciever/Unit1/HFSNET_0:61 *C 11.383 28.268
*N Reciever/Unit1/HFSNET_0:62 *C 11.396 28.282
*N Reciever/Unit1/HFSNET_0:63 *C 11.396 29.319

*CAP
0 Reciever\/Unit1\/HFSBUF_344_0:Y 0.001
1 Reciever\/Unit1\/U24:A2 0.001
2 Reciever\/Unit1\/U20:A2 0.001
3 Reciever\/Unit1\/U19:A2 0.001
4 Reciever\/Unit1\/U18:A2 0.001
5 Reciever\/Unit1\/U16:A2 0.001
6 Reciever\/Unit1\/U17:A2 0.001
7 Reciever\/Unit1\/U21:A2 0.001
8 Reciever\/Unit1\/U23:A2 0.001
9 Reciever\/Unit1\/U3:A2 0.001
10 Reciever\/Unit1\/U25:A2 0.001
11 Reciever\/Unit1\/U22:A2 0.001
12 Reciever/Unit1/HFSNET_0:12 0.01297401
13 Reciever/Unit1/HFSNET_0:13 0.05774951
14 Reciever/Unit1/HFSNET_0:14 0.07029492
15 Reciever/Unit1/HFSNET_0:15 0.03269131
16 Reciever/Unit1/HFSNET_0:16 0.005103705
17 Reciever/Unit1/HFSNET_0:17 0.03048719
18 Reciever/Unit1/HFSNET_0:18 0.3436581
19 Reciever/Unit1/HFSNET_0:19 0.01431278
20 Reciever/Unit1/HFSNET_0:20 0.008135661
21 Reciever/Unit1/HFSNET_0:21 0.3593137
22 Reciever/Unit1/HFSNET_0:22 0.01328344
23 Reciever/Unit1/HFSNET_0:23 0.1822097
24 Reciever/Unit1/HFSNET_0:24 0.2044555
25 Reciever/Unit1/HFSNET_0:25 0.1760664
26 Reciever/Unit1/HFSNET_0:26 0.155045
27 Reciever/Unit1/HFSNET_0:27 0.02542496
28 Reciever/Unit1/HFSNET_0:28 0.03283329
29 Reciever/Unit1/HFSNET_0:29 0.03433497
30 Reciever/Unit1/HFSNET_0:30 0.01575081
31 Reciever/Unit1/HFSNET_0:31 0.03024167
32 Reciever/Unit1/HFSNET_0:32 0.03167436
33 Reciever/Unit1/HFSNET_0:33 0.02488093
34 Reciever/Unit1/HFSNET_0:34 0.03858068
35 Reciever/Unit1/HFSNET_0:35 0.03022981
36 Reciever/Unit1/HFSNET_0:36 0.03166249
37 Reciever/Unit1/HFSNET_0:37 0.2336645
38 Reciever/Unit1/HFSNET_0:38 0.2443805
39 Reciever/Unit1/HFSNET_0:39 0.2691192
40 Reciever/Unit1/HFSNET_0:40 0.2607403
41 Reciever/Unit1/HFSNET_0:41 0.03681402
42 Reciever/Unit1/HFSNET_0:42 0.02314942
43 Reciever/Unit1/HFSNET_0:43 0.0312685
44 Reciever/Unit1/HFSNET_0:44 0.07989852
45 Reciever/Unit1/HFSNET_0:45 0.0596364
46 Reciever/Unit1/HFSNET_0:46 0.01351344
47 Reciever/Unit1/HFSNET_0:47 0.01351344
48 Reciever/Unit1/HFSNET_0:48 0.0740653
49 Reciever/Unit1/HFSNET_0:49 0.02355894
50 Reciever/Unit1/HFSNET_0:50 0.03505498
51 Reciever/Unit1/HFSNET_0:51 0.244761
52 Reciever/Unit1/HFSNET_0:52 0.1582601
53 Reciever/Unit1/HFSNET_0:53 0.09232433
54 Reciever/Unit1/HFSNET_0:54 0.09232433
55 Reciever/Unit1/HFSNET_0:55 0.06769484
56 Reciever/Unit1/HFSNET_0:56 0.07518549
57 Reciever/Unit1/HFSNET_0:57 0.2162187
58 Reciever/Unit1/HFSNET_0:58 0.01417086
59 Reciever/Unit1/HFSNET_0:59 0.01560353
60 Reciever/Unit1/HFSNET_0:60 0.268381
61 Reciever/Unit1/HFSNET_0:61 0.04979005
62 Reciever/Unit1/HFSNET_0:62 0.04827692
63 Reciever/Unit1/HFSNET_0:63 0.04684424

*RES
0 Reciever\/Unit1\/HFSBUF_344_0:Y Reciever/Unit1/HFSNET_0:63 1
1 Reciever/Unit1/HFSNET_0:32 Reciever/Unit1/HFSNET_0:31 1.0375
2 Reciever/Unit1/HFSNET_0:33 Reciever/Unit1/HFSNET_0:32 0.5
3 Reciever/Unit1/HFSNET_0:31 Reciever\/Unit1\/U16:A2 1
4 Reciever/Unit1/HFSNET_0:36 Reciever/Unit1/HFSNET_0:35 1.0375
5 Reciever/Unit1/HFSNET_0:37 Reciever/Unit1/HFSNET_0:36 0.5
6 Reciever/Unit1/HFSNET_0:37 Reciever/Unit1/HFSNET_0:34 0.5410714
7 Reciever/Unit1/HFSNET_0:35 Reciever\/Unit1\/U18:A2 1
8 Reciever/Unit1/HFSNET_0:13 Reciever\/Unit1\/U25:A2 1
9 Reciever/Unit1/HFSNET_0:16 Reciever\/Unit1\/U3:A2 1
10 Reciever/Unit1/HFSNET_0:62 Reciever/Unit1/HFSNET_0:61 0.5
11 Reciever/Unit1/HFSNET_0:61 Reciever/Unit1/HFSNET_0:60 2.690179
12 Reciever/Unit1/HFSNET_0:63 Reciever/Unit1/HFSNET_0:62 1.851786
13 Reciever/Unit1/HFSNET_0:59 Reciever/Unit1/HFSNET_0:58 0.4946429
14 Reciever/Unit1/HFSNET_0:60 Reciever/Unit1/HFSNET_0:59 0.5
15 Reciever/Unit1/HFSNET_0:60 Reciever/Unit1/HFSNET_0:57 11.10446
16 Reciever/Unit1/HFSNET_0:58 Reciever\/Unit1\/U24:A2 1
17 Reciever/Unit1/HFSNET_0:26 Reciever\/Unit1\/U21:A2 1
18 Reciever/Unit1/HFSNET_0:26 Reciever/Unit1/HFSNET_0:25 5.428572
19 Reciever/Unit1/HFSNET_0:12 Reciever\/Unit1\/U22:A2 1
20 Reciever/Unit1/HFSNET_0:17 Reciever/Unit1/HFSNET_0:16 0.2696429
21 Reciever/Unit1/HFSNET_0:17 Reciever/Unit1/HFSNET_0:15 0.5187501
22 Reciever/Unit1/HFSNET_0:18 Reciever/Unit1/HFSNET_0:17 0.5
23 Reciever/Unit1/HFSNET_0:56 Reciever/Unit1/HFSNET_0:55 2.147322
24 Reciever/Unit1/HFSNET_0:56 Reciever/Unit1/HFSNET_0:29 0.2714286
25 Reciever/Unit1/HFSNET_0:57 Reciever/Unit1/HFSNET_0:56 0.5
26 Reciever/Unit1/HFSNET_0:20 Reciever\/Unit1\/U23:A2 1
27 Reciever/Unit1/HFSNET_0:20 Reciever/Unit1/HFSNET_0:19 0.2825
28 Reciever/Unit1/HFSNET_0:21 Reciever/Unit1/HFSNET_0:20 0.5
29 Reciever/Unit1/HFSNET_0:21 Reciever/Unit1/HFSNET_0:18 14.90447
30 Reciever/Unit1/HFSNET_0:23 Reciever/Unit1/HFSNET_0:22 0.5
31 Reciever/Unit1/HFSNET_0:22 Reciever/Unit1/HFSNET_0:21 0.5187501
32 Reciever/Unit1/HFSNET_0:55 Reciever/Unit1/HFSNET_0:54 0.5
33 Reciever/Unit1/HFSNET_0:54 Reciever/Unit1/HFSNET_0:53 3.774107
34 Reciever/Unit1/HFSNET_0:52 Reciever/Unit1/HFSNET_0:51 6.5125
35 Reciever/Unit1/HFSNET_0:53 Reciever/Unit1/HFSNET_0:52 0.5
36 Reciever/Unit1/HFSNET_0:49 Reciever\/Unit1\/U20:A2 1
37 Reciever/Unit1/HFSNET_0:45 Reciever\/Unit1\/U19:A2 1
38 Reciever/Unit1/HFSNET_0:45 Reciever/Unit1/HFSNET_0:44 2.147321
39 Reciever/Unit1/HFSNET_0:48 Reciever/Unit1/HFSNET_0:47 0.5
40 Reciever/Unit1/HFSNET_0:47 Reciever/Unit1/HFSNET_0:46 0.4946429
41 Reciever/Unit1/HFSNET_0:46 Reciever/Unit1/HFSNET_0:45 0.5
42 Reciever/Unit1/HFSNET_0:30 Reciever\/Unit1\/U17:A2 1
43 Reciever/Unit1/HFSNET_0:43 Reciever/Unit1/HFSNET_0:42 0.5
44 Reciever/Unit1/HFSNET_0:43 Reciever/Unit1/HFSNET_0:30 0.5187501
45 Reciever/Unit1/HFSNET_0:42 Reciever/Unit1/HFSNET_0:41 1.061607
46 Reciever/Unit1/HFSNET_0:44 Reciever/Unit1/HFSNET_0:43 0.5428572
47 Reciever/Unit1/HFSNET_0:50 Reciever/Unit1/HFSNET_0:49 0.5187501
48 Reciever/Unit1/HFSNET_0:51 Reciever/Unit1/HFSNET_0:50 0.2714286
49 Reciever/Unit1/HFSNET_0:51 Reciever/Unit1/HFSNET_0:48 2.690179
50 Reciever/Unit1/HFSNET_0:24 Reciever/Unit1/HFSNET_0:23 6.490179
51 Reciever/Unit1/HFSNET_0:25 Reciever/Unit1/HFSNET_0:24 0.8142858
52 Reciever/Unit1/HFSNET_0:25 Reciever/Unit1/HFSNET_0:12 0.5187501
53 Reciever/Unit1/HFSNET_0:29 Reciever/Unit1/HFSNET_0:28 0.2714286
54 Reciever/Unit1/HFSNET_0:29 Reciever/Unit1/HFSNET_0:26 0.5428572
55 Reciever/Unit1/HFSNET_0:28 Reciever/Unit1/HFSNET_0:27 0.6410715
56 Reciever/Unit1/HFSNET_0:15 Reciever/Unit1/HFSNET_0:14 0.2714286
57 Reciever/Unit1/HFSNET_0:14 Reciever/Unit1/HFSNET_0:13 2.147322
58 Reciever/Unit1/HFSNET_0:41 Reciever/Unit1/HFSNET_0:40 0.5428572
59 Reciever/Unit1/HFSNET_0:40 Reciever/Unit1/HFSNET_0:39 10.85714
60 Reciever/Unit1/HFSNET_0:39 Reciever/Unit1/HFSNET_0:38 1.085714
61 Reciever/Unit1/HFSNET_0:38 Reciever/Unit1/HFSNET_0:37 8.957144
62 Reciever/Unit1/HFSNET_0:34 Reciever/Unit1/HFSNET_0:33 1.061607

*END

*D_NET reset_n 10.21162 //LENGTH 120.709 LUMPCC 0 DR

*CONN
*P reset_n I *L 0 *C 0.279 22.188
*I Reciever\/Unit2\/HFSINV_436_741:A I *L 0.577904 *C 4.404 21.276
*I HFSBUF_341_742:A I *L 0.705121 *C 6.684 21.276
*I Transmitter\/Unit1\/clock_ticks_reg[8]:RSTB I *L 0.892564 *C 20.212 18.844
*I Transmitter\/Unit1\/clock_ticks_reg[9]:RSTB I *L 0.892564 *C 24.620 18.844
*I Transmitter\/Unit1\/clock_ticks_reg[10]:RSTB I *L 0.892564 *C 28.876 18.844
*I Transmitter\/Unit3\/stop_count_reg[3]:RSTB I *L 0.892564 *C 29.484 15.500
*I Reciever\/Unit2\/U69:A2 I *L 0.46235 *C 18.692 9.420
*I Reciever\/Unit2\/U97:A2 I *L 0.46235 *C 20.516 9.420
*I Reciever\/Unit2\/U96:A2 I *L 0.546428 *C 24.012 9.572
*I Reciever\/Unit2\/U70:A2 I *L 0.546428 *C 25.076 9.572
*I Reciever\/Unit2\/U85:A2 I *L 0.46235 *C 24.620 2.732
*I Reciever\/Unit2\/next_state_reg[0]:RSTB I *L 0.892564 *C 22.796 1.820
*I Reciever\/Unit2\/next_state_reg[1]:RSTB I *L 0.892564 *C 27.660 2.124
*I Reciever\/Unit3\/U3:A1 I *L 0.607542 *C 26.140 12.916
*I Reciever\/Unit3\/U17:A1 I *L 0.545591 *C 30.092 10.940
*I Reciever\/Unit4\/U16:A1 I *L 0.545591 *C 28.876 10.940
*I Transmitter\/Unit3\/stop_count_reg[1]:RSTB I *L 0.892564 *C 32.828 8.812
*I Transmitter\/Unit3\/stop_count_reg[0]:RSTB I *L 0.892564 *C 32.676 11.852
*I Transmitter\/Unit3\/U4:A3 I *L 0.5071 *C 35.868 14.436
*I Transmitter\/Unit3\/stop_count_reg[2]:RSTB I *L 0.892564 *C 28.876 12.156
*I Transmitter\/Unit1\/baud_clk_reg:RSTB I *L 0.892564 *C 33.740 18.844
*I Transmitter\/Unit3\/next_state_reg:RSTB I *L 0.892564 *C 35.108 18.540
*I Transmitter\/Unit1\/clock_ticks_reg[11]:RSTB I *L 0.892564 *C 35.260 22.188
*I Transmitter\/Unit1\/clock_ticks_reg[12]:RSTB I *L 0.892564 *C 35.260 25.228
*I Transmitter\/Unit1\/clock_ticks_reg[0]:RSTB I *L 0.892564 *C 35.260 31.916
*I Transmitter\/Unit1\/clock_ticks_reg[1]:RSTB I *L 0.892564 *C 34.044 35.260
*I Transmitter\/Unit1\/clock_ticks_reg[2]:RSTB I *L 0.892564 *C 29.484 35.260
*I Transmitter\/Unit1\/clock_ticks_reg[13]:RSTB I *L 1.044023 *C 34.956 28.876
*N reset_n:29 *C 29.484 35.078
*N reset_n:30 *C 29.484 35.248
*N reset_n:31 *C 29.498 35.260
*N reset_n:32 *C 34.031 35.260
*N reset_n:33 *C 34.044 35.247
*N reset_n:34 *C 34.044 31.930
*N reset_n:35 *C 34.058 31.916
*N reset_n:36 *C 35.247 31.916
*N reset_n:37 *C 35.260 31.902
*N reset_n:38 *C 35.260 28.890
*N reset_n:39 *C 35.247 28.876
*N reset_n:40 *C 34.970 28.876
*N reset_n:41 *C 34.956 28.863
*N reset_n:42 *C 34.956 25.836
*N reset_n:43 *C 35.260 25.836
*N reset_n:44 *C 35.260 25.228
*N reset_n:45 *C 35.260 22.188
*N reset_n:46 *C 35.260 18.844
*N reset_n:47 *C 35.108 18.553
*N reset_n:48 *C 35.108 18.844
*N reset_n:49 *C 35.095 18.844
*N reset_n:50 *C 33.740 18.662
*N reset_n:51 *C 33.740 18.832
*N reset_n:52 *C 33.740 18.844
*N reset_n:53 *C 28.876 11.974
*N reset_n:54 *C 28.876 12.144
*N reset_n:55 *C 28.890 12.156
*N reset_n:56 *C 35.868 14.423
*N reset_n:57 *C 35.868 10.954
*N reset_n:58 *C 35.855 10.940
*N reset_n:59 *C 32.677 11.852
*N reset_n:60 *C 32.828 11.852
*N reset_n:61 *C 32.828 8.825
*N reset_n:62 *C 32.828 10.940
*N reset_n:63 *C 32.828 10.940
*N reset_n:64 *C 28.876 10.808
*N reset_n:65 *C 28.876 10.928
*N reset_n:66 *C 28.890 10.940
*N reset_n:67 *C 30.092 10.940
*N reset_n:68 *C 30.092 10.954
*N reset_n:69 *C 30.092 12.143
*N reset_n:70 *C 30.092 12.157
*N reset_n:71 *C 30.092 12.460
*N reset_n:72 *C 26.140 12.904
*N reset_n:73 *C 26.140 12.764
*N reset_n:74 *C 26.140 12.763
*N reset_n:75 *C 27.660 1.942
*N reset_n:76 *C 27.660 2.111
*N reset_n:77 *C 27.646 2.124
*N reset_n:78 *C 22.796 1.834
*N reset_n:79 *C 22.796 2.111
*N reset_n:80 *C 22.809 2.124
*N reset_n:81 *C 24.620 2.124
*N reset_n:82 *C 24.620 2.138
*N reset_n:83 *C 24.620 2.732
*N reset_n:84 *C 24.620 4.100
*N reset_n:85 *C 24.468 4.100
*N reset_n:86 *C 25.076 9.572
*N reset_n:87 *C 25.076 9.712
*N reset_n:88 *C 25.062 9.724
*N reset_n:89 *C 24.012 9.572
*N reset_n:90 *C 24.012 9.712
*N reset_n:91 *C 24.026 9.724
*N reset_n:92 *C 24.468 9.724
*N reset_n:93 *C 24.468 9.724
*N reset_n:94 *C 20.516 9.421
*N reset_n:95 *C 18.692 9.421
*N reset_n:96 *C 18.692 9.710
*N reset_n:97 *C 18.706 9.724
*N reset_n:98 *C 20.503 9.724
*N reset_n:99 *C 20.516 9.724
*N reset_n:100 *C 20.516 10.319
*N reset_n:101 *C 20.530 10.332
*N reset_n:102 *C 24.454 10.332
*N reset_n:103 *C 24.468 10.332
*N reset_n:104 *C 24.468 12.447
*N reset_n:105 *C 24.482 12.460
*N reset_n:106 *C 26.140 12.460
*N reset_n:107 *C 29.484 12.460
*N reset_n:108 *C 29.484 12.474
*N reset_n:109 *C 29.484 15.487
*N reset_n:110 *C 29.332 15.500
*N reset_n:111 *C 29.332 18.831
*N reset_n:112 *C 29.332 18.844
*N reset_n:113 *C 28.876 18.662
*N reset_n:114 *C 28.876 18.832
*N reset_n:115 *C 28.876 18.844
*N reset_n:116 *C 24.620 18.662
*N reset_n:117 *C 24.620 18.832
*N reset_n:118 *C 24.620 18.844
*N reset_n:119 *C 20.212 18.662
*N reset_n:120 *C 20.212 18.832
*N reset_n:121 *C 20.212 18.844
*N reset_n:122 *C 6.698 18.844
*N reset_n:123 *C 6.684 18.858
*N reset_n:124 *C 6.684 21.276
*N reset_n:125 *C 6.684 21.870
*N reset_n:126 *C 6.671 21.884
*N reset_n:127 *C 4.404 21.290
*N reset_n:128 *C 4.404 21.870
*N reset_n:129 *C 4.480 21.884
*N reset_n:130 *C 4.480 22.188

*CAP
0 reset_n 0.1600975
1 Reciever\/Unit2\/HFSINV_436_741:A 0.001
2 HFSBUF_341_742:A 0.001
3 Transmitter\/Unit1\/clock_ticks_reg[8]:RSTB 0.001
4 Transmitter\/Unit1\/clock_ticks_reg[9]:RSTB 0.001
5 Transmitter\/Unit1\/clock_ticks_reg[10]:RSTB 0.001
6 Transmitter\/Unit3\/stop_count_reg[3]:RSTB 0.001
7 Reciever\/Unit2\/U69:A2 0.001
8 Reciever\/Unit2\/U97:A2 0.001
9 Reciever\/Unit2\/U96:A2 0.001
10 Reciever\/Unit2\/U70:A2 0.001
11 Reciever\/Unit2\/U85:A2 0.001
12 Reciever\/Unit2\/next_state_reg[0]:RSTB 0.001
13 Reciever\/Unit2\/next_state_reg[1]:RSTB 0.001
14 Reciever\/Unit3\/U3:A1 0.001
15 Reciever\/Unit3\/U17:A1 0.001
16 Reciever\/Unit4\/U16:A1 0.001
17 Transmitter\/Unit3\/stop_count_reg[1]:RSTB 0.001
18 Transmitter\/Unit3\/stop_count_reg[0]:RSTB 0.001
19 Transmitter\/Unit3\/U4:A3 0.001
20 Transmitter\/Unit3\/stop_count_reg[2]:RSTB 0.001
21 Transmitter\/Unit1\/baud_clk_reg:RSTB 0.001
22 Transmitter\/Unit3\/next_state_reg:RSTB 0.001
23 Transmitter\/Unit1\/clock_ticks_reg[11]:RSTB 0.001
24 Transmitter\/Unit1\/clock_ticks_reg[12]:RSTB 0.001
25 Transmitter\/Unit1\/clock_ticks_reg[0]:RSTB 0.001
26 Transmitter\/Unit1\/clock_ticks_reg[1]:RSTB 0.001
27 Transmitter\/Unit1\/clock_ticks_reg[2]:RSTB 0.001
28 Transmitter\/Unit1\/clock_ticks_reg[13]:RSTB 0.001
29 reset_n:29 0.01794045
30 reset_n:30 0.01176334
31 reset_n:31 0.2132548
32 reset_n:32 0.2132548
33 reset_n:33 0.1409109
34 reset_n:34 0.1447158
35 reset_n:35 0.04660746
36 reset_n:36 0.04660746
37 reset_n:37 0.1253589
38 reset_n:38 0.1291638
39 reset_n:39 0.01479711
40 reset_n:40 0.01479711
41 reset_n:41 0.1231656
42 reset_n:42 0.1444883
43 reset_n:43 0.04183528
44 reset_n:44 0.1476232
45 reset_n:45 0.2544785
46 reset_n:46 0.1420356
47 reset_n:47 0.0165585
48 reset_n:48 0.02648184
49 reset_n:49 0.04807326
50 reset_n:50 0.0176566
51 reset_n:51 0.01147949
52 reset_n:52 0.2026101
53 reset_n:53 0.01333972
54 reset_n:54 0.007162601
55 reset_n:55 0.05426882
56 reset_n:56 0.1929622
57 reset_n:57 0.1943949
58 reset_n:58 0.1354935
59 reset_n:59 0.004755101
60 reset_n:60 0.06965382
61 reset_n:61 0.129264
62 reset_n:62 0.1917905
63 reset_n:63 0.2508698
64 reset_n:64 0.01150667
65 reset_n:65 0.003352706
66 reset_n:66 0.04910266
67 reset_n:67 0.1644789
68 reset_n:68 0.05712721
69 reset_n:69 0.06290895
70 reset_n:70 0.06590287
71 reset_n:71 0.03898429
72 reset_n:72 0.01225487
73 reset_n:73 0.01368755
74 reset_n:74 0.009644687
75 reset_n:75 0.01802888
76 reset_n:76 0.01185177
77 reset_n:77 0.1438052
78 reset_n:78 0.0141172
79 reset_n:79 0.01554988
80 reset_n:80 0.08969985
81 reset_n:81 0.2358773
82 reset_n:82 0.03150465
83 reset_n:83 0.1074956
84 reset_n:84 0.08584945
85 reset_n:85 0.2888235
86 reset_n:86 0.01290357
87 reset_n:87 0.01433625
88 reset_n:88 0.02654718
89 reset_n:89 0.01533468
90 reset_n:90 0.01676736
91 reset_n:91 0.01979765
92 reset_n:92 0.04871704
93 reset_n:93 0.3062249
94 reset_n:94 0.01395779
95 reset_n:95 0.01920499
96 reset_n:96 0.02046472
97 reset_n:97 0.09087949
98 reset_n:98 0.09087949
99 reset_n:99 0.04836087
100 reset_n:100 0.03077113
101 reset_n:101 0.1855759
102 reset_n:102 0.1855759
103 reset_n:103 0.1212191
104 reset_n:104 0.09284672
105 reset_n:105 0.05675363
106 reset_n:106 0.1967416
107 reset_n:107 0.1505769
108 reset_n:108 0.1313695
109 reset_n:109 0.1381629
110 reset_n:110 0.1581876
111 reset_n:111 0.1475893
112 reset_n:112 0.1678269
113 reset_n:113 0.01843433
114 reset_n:114 0.01225721
115 reset_n:115 0.1721873
116 reset_n:116 0.01298257
117 reset_n:117 0.006805452
118 reset_n:118 0.333189
119 reset_n:119 0.01336128
120 reset_n:120 0.007184162
121 reset_n:121 0.6790452
122 reset_n:122 0.5023812
123 reset_n:123 0.1036097
124 reset_n:124 0.129751
125 reset_n:125 0.02520176
126 reset_n:126 0.09242236
127 reset_n:127 0.02825749
128 reset_n:128 0.02969017
129 reset_n:129 0.1051716
130 reset_n:130 0.1728468

*RES
0 reset_n reset_n:130 7.501786
1 reset_n:37 Transmitter\/Unit1\/clock_ticks_reg[0]:RSTB 1
2 reset_n:37 reset_n:36 0.5
3 reset_n:44 Transmitter\/Unit1\/clock_ticks_reg[12]:RSTB 1
4 reset_n:44 reset_n:43 1.085714
5 reset_n:45 Transmitter\/Unit1\/clock_ticks_reg[11]:RSTB 1
6 reset_n:45 reset_n:44 5.428572
7 reset_n:47 Transmitter\/Unit3\/next_state_reg:RSTB 1
8 reset_n:38 reset_n:37 5.380358
9 reset_n:39 reset_n:38 0.5
10 reset_n:41 reset_n:40 0.5
11 reset_n:41 Transmitter\/Unit1\/clock_ticks_reg[13]:RSTB 1
12 reset_n:40 reset_n:39 0.4946429
13 reset_n:33 Transmitter\/Unit1\/clock_ticks_reg[1]:RSTB 1
14 reset_n:33 reset_n:32 0.5
15 reset_n:36 reset_n:35 2.123214
16 reset_n:34 reset_n:33 5.923214
17 reset_n:35 reset_n:34 0.5
18 reset_n:48 reset_n:47 0.5187501
19 reset_n:48 reset_n:46 0.2714286
20 reset_n:49 reset_n:48 0.5
21 reset_n:51 Transmitter\/Unit1\/baud_clk_reg:RSTB 1
22 reset_n:51 reset_n:50 0.2825
23 reset_n:52 reset_n:51 0.5
24 reset_n:52 reset_n:49 2.41875
25 reset_n:57 reset_n:56 6.194643
26 reset_n:58 reset_n:57 0.5
27 reset_n:56 Transmitter\/Unit3\/U4:A3 1
28 reset_n:62 reset_n:61 3.775893
29 reset_n:62 reset_n:60 1.628571
30 reset_n:63 reset_n:62 0.5
31 reset_n:63 reset_n:58 5.404465
32 reset_n:61 Transmitter\/Unit3\/stop_count_reg[1]:RSTB 1
33 reset_n:59 Transmitter\/Unit3\/stop_count_reg[0]:RSTB 1
34 reset_n:69 reset_n:68 2.123214
35 reset_n:70 reset_n:69 0.5
36 reset_n:70 reset_n:55 2.147322
37 reset_n:68 Reciever\/Unit3\/U17:A1 1
38 reset_n:68 reset_n:67 0.5
39 reset_n:67 reset_n:66 2.147322
40 reset_n:67 reset_n:63 4.885715
41 reset_n:32 reset_n:31 8.094644
42 reset_n:30 Transmitter\/Unit1\/clock_ticks_reg[2]:RSTB 1
43 reset_n:30 reset_n:29 0.2825
44 reset_n:31 reset_n:30 0.5
45 reset_n:109 Transmitter\/Unit3\/stop_count_reg[3]:RSTB 1
46 reset_n:109 reset_n:108 5.380358
47 reset_n:108 reset_n:107 0.5
48 reset_n:107 reset_n:106 5.971429
49 reset_n:107 reset_n:71 1.085714
50 reset_n:111 reset_n:110 5.947322
51 reset_n:112 reset_n:111 0.5
52 reset_n:112 reset_n:52 7.871428
53 reset_n:114 Transmitter\/Unit1\/clock_ticks_reg[10]:RSTB 1
54 reset_n:114 reset_n:113 0.2825
55 reset_n:115 reset_n:114 0.5
56 reset_n:115 reset_n:112 0.8142858
57 reset_n:54 Transmitter\/Unit3\/stop_count_reg[2]:RSTB 1
58 reset_n:54 reset_n:53 0.2825
59 reset_n:55 reset_n:54 0.5
60 reset_n:65 Reciever\/Unit4\/U16:A1 1
61 reset_n:65 reset_n:64 0.1991667
62 reset_n:66 reset_n:65 0.5
63 reset_n:73 reset_n:72 0.2325
64 reset_n:74 reset_n:73 0.5
65 reset_n:72 Reciever\/Unit3\/U3:A1 1
66 reset_n:76 Reciever\/Unit2\/next_state_reg[1]:RSTB 1
67 reset_n:76 reset_n:75 0.2825
68 reset_n:77 reset_n:76 0.5
69 reset_n:117 Transmitter\/Unit1\/clock_ticks_reg[9]:RSTB 1
70 reset_n:117 reset_n:116 0.2825
71 reset_n:118 reset_n:117 0.5
72 reset_n:118 reset_n:115 7.6
73 reset_n:83 Reciever\/Unit2\/U85:A2 1
74 reset_n:83 reset_n:82 1.061607
75 reset_n:82 reset_n:81 0.5
76 reset_n:81 reset_n:80 3.233036
77 reset_n:81 reset_n:77 5.404464
78 reset_n:87 reset_n:86 0.2325
79 reset_n:88 reset_n:87 0.5
80 reset_n:86 Reciever\/Unit2\/U70:A2 1
81 reset_n:104 reset_n:103 3.775893
82 reset_n:105 reset_n:104 0.5
83 reset_n:93 reset_n:92 0.5
84 reset_n:93 reset_n:85 10.04286
85 reset_n:92 reset_n:91 0.7901786
86 reset_n:92 reset_n:88 1.061607
87 reset_n:90 reset_n:89 0.2325
88 reset_n:91 reset_n:90 0.5
89 reset_n:89 Reciever\/Unit2\/U96:A2 1
90 reset_n:79 reset_n:78 0.4946429
91 reset_n:80 reset_n:79 0.5
92 reset_n:78 Reciever\/Unit2\/next_state_reg[0]:RSTB 1
93 reset_n:103 reset_n:102 0.5
94 reset_n:103 reset_n:93 1.085714
95 reset_n:102 reset_n:101 7.008929
96 reset_n:100 reset_n:99 1.061607
97 reset_n:101 reset_n:100 0.5
98 reset_n:94 Reciever\/Unit2\/U97:A2 1
99 reset_n:120 Transmitter\/Unit1\/clock_ticks_reg[8]:RSTB 1
100 reset_n:120 reset_n:119 0.2825
101 reset_n:121 reset_n:120 0.5
102 reset_n:121 reset_n:118 7.871429
103 reset_n:99 reset_n:98 0.5
104 reset_n:99 reset_n:94 0.5410714
105 reset_n:98 reset_n:97 3.208929
106 reset_n:96 reset_n:95 0.5169643
107 reset_n:97 reset_n:96 0.5
108 reset_n:95 Reciever\/Unit2\/U69:A2 1
109 reset_n:124 HFSBUF_341_742:A 1
110 reset_n:124 reset_n:123 4.31875
111 reset_n:123 reset_n:122 0.5
112 reset_n:122 reset_n:121 24.13304
113 reset_n:125 reset_n:124 1.061607
114 reset_n:126 reset_n:125 0.5
115 reset_n:128 reset_n:127 1.0375
116 reset_n:129 reset_n:128 0.5
117 reset_n:129 reset_n:126 3.911608
118 reset_n:127 Reciever\/Unit2\/HFSINV_436_741:A 1
119 reset_n:85 reset_n:84 0.2714286
120 reset_n:84 reset_n:83 2.442857
121 reset_n:110 reset_n:109 0.2714286
122 reset_n:60 reset_n:59 0.2696429
123 reset_n:42 reset_n:41 5.404464
124 reset_n:43 reset_n:42 0.5428572
125 reset_n:46 reset_n:45 5.971429
126 reset_n:130 reset_n:129 0.5428572
127 reset_n:106 reset_n:105 2.961607
128 reset_n:106 reset_n:74 0.5410715
129 reset_n:71 reset_n:70 0.5410715

*END

*D_NET send 0.2877244 //LENGTH 4.007 LUMPCC 0 DR

*CONN
*P send I *L 0 *C 37.734 22.796
*I Transmitter\/Unit3\/U6:A1 I *L 0.492533 *C 37.084 19.604
*N send:2 *C 37.084 19.617
*N send:3 *C 37.084 22.783
*N send:4 *C 37.098 22.796

*CAP
0 send 0.0277859
1 Transmitter\/Unit3\/U6:A1 0.001
2 send:2 0.116046
3 send:3 0.1174787
4 send:4 0.02541368

*RES
0 send send:4 1.136607
1 send:2 Transmitter\/Unit3\/U6:A1 1
2 send:3 send:2 5.651786
3 send:4 send:3 0.5

*END

*D_NET clock 11.85448 //LENGTH 149.133 LUMPCC 0 DR

*CONN
*P clock I *L 0 *C 37.727 22.188
*I Transmitter\/Unit1\/baud_clk_reg:CLK I *L 0.668019 *C 32.524 20.212
*I Transmitter\/Unit1\/clock_ticks_reg[10]:CLK I *L 0.668019 *C 27.660 20.212
*I Transmitter\/Unit1\/clock_ticks_reg[8]:CLK I *L 0.668019 *C 18.996 20.212
*I Transmitter\/Unit1\/clock_ticks_reg[9]:CLK I *L 0.668019 *C 23.404 20.212
*I Transmitter\/Unit1\/clock_ticks_reg[7]:CLK I *L 0.668019 *C 18.084 23.556
*I Transmitter\/Unit1\/clock_ticks_reg[5]:CLK I *L 0.668019 *C 18.084 26.900
*I Reciever\/Unit1\/clock_ticks_reg[0]:CLK I *L 0.668019 *C 13.676 23.556
*I Reciever\/Unit1\/clock_ticks_reg[1]:CLK I *L 0.668019 *C 8.204 23.556
*I Reciever\/Unit1\/clock_ticks_reg[2]:CLK I *L 0.668019 *C 3.492 23.556
*I Reciever\/Unit1\/clock_ticks_reg[3]:CLK I *L 0.668019 *C 3.188 26.900
*I Reciever\/Unit1\/clock_ticks_reg[5]:CLK I *L 0.668019 *C 2.884 30.548
*I Reciever\/Unit1\/clock_ticks_reg[4]:CLK I *L 0.668019 *C 3.340 30.244
*I Reciever\/Unit1\/clock_ticks_reg[6]:CLK I *L 0.668019 *C 2.884 33.588
*I Reciever\/Unit1\/clock_ticks_reg[8]:CLK I *L 0.668019 *C 3.036 36.932
*I Reciever\/Unit1\/baud_clk_reg:CLK I *L 0.668019 *C 14.588 20.516
*I Transmitter\/Unit1\/clock_ticks_reg[11]:CLK I *L 0.668019 *C 34.044 23.556
*I Transmitter\/Unit1\/clock_ticks_reg[13]:CLK I *L 0.665682 *C 33.740 30.244
*I Transmitter\/Unit1\/clock_ticks_reg[1]:CLK I *L 0.668019 *C 32.828 33.892
*I Transmitter\/Unit1\/clock_ticks_reg[2]:CLK I *L 0.668019 *C 28.268 33.892
*I Transmitter\/Unit1\/clock_ticks_reg[3]:CLK I *L 0.668019 *C 23.708 33.892
*I Transmitter\/Unit1\/clock_ticks_reg[4]:CLK I *L 0.668019 *C 19.452 33.892
*I Reciever\/Unit1\/clock_ticks_reg[9]:CLK I *L 0.668019 *C 15.196 33.892
*I Reciever\/Unit1\/clock_ticks_reg[7]:CLK I *L 0.668019 *C 14.740 36.932
*I Transmitter\/Unit1\/clock_ticks_reg[6]:CLK I *L 0.668019 *C 18.844 30.548
*I Transmitter\/Unit1\/clock_ticks_reg[0]:CLK I *L 0.668019 *C 34.044 30.548
*I Transmitter\/Unit1\/clock_ticks_reg[12]:CLK I *L 0.668019 *C 34.044 23.860
*N clock:27 *C 37.692 22.006
*N clock:28 *C 34.044 23.830
*N clock:29 *C 33.862 24.012
*N clock:30 *C 34.044 23.860
*N clock:31 *C 34.044 24.000
*N clock:32 *C 34.032 24.012
*N clock:33 *C 34.044 24.000
*N clock:34 *C 34.058 24.012
*N clock:35 *C 34.348 24.012
*N clock:36 *C 34.044 30.518
*N clock:37 *C 33.862 30.700
*N clock:38 *C 34.044 30.548
*N clock:39 *C 34.044 30.688
*N clock:40 *C 34.032 30.700
*N clock:41 *C 34.044 30.688
*N clock:42 *C 34.031 30.700
*N clock:43 *C 18.844 30.518
*N clock:44 *C 18.662 30.700
*N clock:45 *C 18.844 30.548
*N clock:46 *C 18.844 30.688
*N clock:47 *C 18.832 30.700
*N clock:48 *C 18.844 30.688
*N clock:49 *C 18.858 30.700
*N clock:50 *C 22.048 30.700
*N clock:51 *C 24.012 30.700
*N clock:52 *C 24.012 31.916
*N clock:53 *C 14.710 36.780
*N clock:54 *C 14.892 36.598
*N clock:55 *C 14.740 36.919
*N clock:56 *C 14.740 36.780
*N clock:57 *C 14.740 36.780
*N clock:58 *C 14.880 36.780
*N clock:59 *C 14.892 36.767
*N clock:60 *C 14.880 36.780
*N clock:61 *C 14.892 36.767
*N clock:62 *C 14.892 33.754
*N clock:63 *C 14.892 33.740
*N clock:64 *C 15.014 33.892
*N clock:65 *C 15.196 34.074
*N clock:66 *C 15.196 33.904
*N clock:67 *C 15.184 33.892
*N clock:68 *C 15.196 33.880
*N clock:69 *C 15.196 33.740
*N clock:70 *C 15.196 33.740
*N clock:71 *C 19.270 33.892
*N clock:72 *C 19.452 34.074
*N clock:73 *C 19.452 33.904
*N clock:74 *C 19.440 33.892
*N clock:75 *C 19.452 33.880
*N clock:76 *C 19.452 33.740
*N clock:77 *C 19.452 33.740
*N clock:78 *C 23.526 33.892
*N clock:79 *C 23.708 34.074
*N clock:80 *C 23.708 33.904
*N clock:81 *C 23.696 33.892
*N clock:82 *C 23.708 33.880
*N clock:83 *C 23.708 33.740
*N clock:84 *C 23.708 33.740
*N clock:85 *C 24.012 33.740
*N clock:86 *C 24.012 33.740
*N clock:87 *C 24.012 31.916
*N clock:88 *C 24.012 31.916
*N clock:89 *C 28.086 33.740
*N clock:90 *C 28.268 33.558
*N clock:91 *C 28.086 33.740
*N clock:92 *C 28.268 33.880
*N clock:93 *C 28.268 33.740
*N clock:94 *C 28.256 33.740
*N clock:95 *C 28.268 33.727
*N clock:96 *C 28.256 33.740
*N clock:97 *C 28.268 33.727
*N clock:98 *C 28.268 31.930
*N clock:99 *C 28.268 31.916
*N clock:100 *C 32.828 33.558
*N clock:101 *C 32.646 33.740
*N clock:102 *C 32.828 33.880
*N clock:103 *C 32.828 33.740
*N clock:104 *C 32.816 33.740
*N clock:105 *C 32.828 33.727
*N clock:106 *C 32.815 33.740
*N clock:107 *C 32.538 33.740
*N clock:108 *C 32.524 33.727
*N clock:109 *C 32.524 31.930
*N clock:110 *C 32.524 31.916
*N clock:111 *C 33.740 31.916
*N clock:112 *C 33.754 30.700
*N clock:113 *C 33.740 30.700
*N clock:114 *C 33.558 30.244
*N clock:115 *C 33.740 30.062
*N clock:116 *C 33.558 30.244
*N clock:117 *C 33.740 30.062
*N clock:118 *C 33.740 30.232
*N clock:119 *C 33.727 30.244
*N clock:120 *C 33.740 30.232
*N clock:121 *C 33.727 30.244
*N clock:122 *C 33.740 30.244
*N clock:123 *C 33.740 23.404
*N clock:124 *C 34.348 23.404
*N clock:125 *C 33.862 23.404
*N clock:126 *C 34.044 23.544
*N clock:127 *C 34.044 23.404
*N clock:128 *C 34.032 23.404
*N clock:129 *C 34.045 23.404
*N clock:130 *C 34.347 23.404
*N clock:131 *C 34.348 23.405
*N clock:132 *C 14.588 20.182
*N clock:133 *C 14.406 20.364
*N clock:134 *C 14.588 20.504
*N clock:135 *C 14.588 20.364
*N clock:136 *C 14.575 20.364
*N clock:137 *C 14.588 20.352
*N clock:138 *C 14.602 20.364
*N clock:139 *C 14.892 20.364
*N clock:140 *C 3.036 36.598
*N clock:141 *C 2.854 36.780
*N clock:142 *C 3.036 36.919
*N clock:143 *C 3.036 36.780
*N clock:144 *C 3.024 36.780
*N clock:145 *C 3.036 36.767
*N clock:146 *C 3.050 36.780
*N clock:147 *C 3.327 36.780
*N clock:148 *C 3.340 36.767
*N clock:149 *C 3.340 33.880
*N clock:150 *C 3.036 32.950
*N clock:151 *C 2.884 33.575
*N clock:152 *C 2.884 33.145
*N clock:153 *C 2.884 33.132
*N clock:154 *C 3.024 33.132
*N clock:155 *C 3.036 33.120
*N clock:156 *C 3.050 33.132
*N clock:157 *C 3.327 33.132
*N clock:158 *C 3.340 33.132
*N clock:159 *C 3.340 29.910
*N clock:160 *C 3.158 30.092
*N clock:161 *C 3.340 30.232
*N clock:162 *C 3.340 30.092
*N clock:163 *C 3.328 30.092
*N clock:164 *C 3.340 30.080
*N clock:165 *C 3.340 30.093
*N clock:166 *C 2.732 30.518
*N clock:167 *C 2.884 30.536
*N clock:168 *C 2.884 30.396
*N clock:169 *C 2.871 30.396
*N clock:170 *C 2.594 30.396
*N clock:171 *C 2.580 30.410
*N clock:172 *C 2.580 30.687
*N clock:173 *C 2.580 30.700
*N clock:174 *C 2.720 30.700
*N clock:175 *C 2.732 30.688
*N clock:176 *C 2.746 30.700
*N clock:177 *C 3.340 30.699
*N clock:178 *C 3.340 30.700
*N clock:179 *C 3.158 26.444
*N clock:180 *C 3.340 26.262
*N clock:181 *C 3.188 26.887
*N clock:182 *C 3.188 26.457
*N clock:183 *C 3.188 26.444
*N clock:184 *C 3.328 26.444
*N clock:185 *C 3.340 26.431
*N clock:186 *C 3.328 26.444
*N clock:187 *C 3.340 26.444
*N clock:188 *C 3.340 22.188
*N clock:189 *C 3.492 23.543
*N clock:190 *C 3.492 23.114
*N clock:191 *C 3.480 23.100
*N clock:192 *C 3.340 23.100
*N clock:193 *C 3.340 23.087
*N clock:194 *C 3.340 22.201
*N clock:195 *C 3.340 22.188
*N clock:196 *C 8.022 23.100
*N clock:197 *C 8.204 23.543
*N clock:198 *C 8.204 23.114
*N clock:199 *C 8.191 23.100
*N clock:200 *C 8.204 23.087
*N clock:201 *C 8.204 22.201
*N clock:202 *C 8.204 22.188
*N clock:203 *C 13.494 23.100
*N clock:204 *C 13.676 23.543
*N clock:205 *C 13.676 23.114
*N clock:206 *C 13.664 23.100
*N clock:207 *C 13.676 23.087
*N clock:208 *C 13.676 22.201
*N clock:209 *C 13.676 22.188
*N clock:210 *C 14.892 22.188
*N clock:211 *C 14.892 23.404
*N clock:212 *C 17.750 26.444
*N clock:213 *C 17.932 26.262
*N clock:214 *C 18.084 26.887
*N clock:215 *C 18.084 26.457
*N clock:216 *C 18.072 26.444
*N clock:217 *C 17.932 26.444
*N clock:218 *C 17.932 26.431
*N clock:219 *C 17.919 26.444
*N clock:220 *C 17.932 26.431
*N clock:221 *C 17.932 23.696
*N clock:222 *C 17.932 23.404
*N clock:223 *C 17.932 23.222
*N clock:224 *C 18.084 23.544
*N clock:225 *C 18.084 23.404
*N clock:226 *C 18.072 23.404
*N clock:227 *C 17.932 23.404
*N clock:228 *C 17.932 23.392
*N clock:229 *C 17.932 23.404
*N clock:230 *C 22.188 23.404
*N clock:231 *C 22.188 22.188
*N clock:232 *C 23.404 19.574
*N clock:233 *C 23.222 19.756
*N clock:234 *C 23.404 20.198
*N clock:235 *C 23.404 19.770
*N clock:236 *C 23.392 19.756
*N clock:237 *C 23.404 19.744
*N clock:238 *C 23.390 19.756
*N clock:239 *C 19.148 19.574
*N clock:240 *C 18.996 20.198
*N clock:241 *C 18.996 19.770
*N clock:242 *C 18.996 19.756
*N clock:243 *C 19.136 19.756
*N clock:244 *C 19.148 19.744
*N clock:245 *C 19.162 19.756
*N clock:246 *C 21.896 19.756
*N clock:247 *C 22.201 19.756
*N clock:248 *C 22.188 19.756
*N clock:249 *C 22.188 22.188
*N clock:250 *C 22.188 22.188
*N clock:251 *C 27.478 19.756
*N clock:252 *C 27.660 19.574
*N clock:253 *C 27.478 19.756
*N clock:254 *C 27.660 20.198
*N clock:255 *C 27.660 19.770
*N clock:256 *C 27.648 19.756
*N clock:257 *C 27.660 19.744
*N clock:258 *C 27.648 19.756
*N clock:259 *C 27.660 19.770
*N clock:260 *C 27.660 22.175
*N clock:261 *C 27.660 22.188
*N clock:262 *C 32.524 22.188
*N clock:263 *C 32.342 19.756
*N clock:264 *C 32.524 19.574
*N clock:265 *C 32.342 19.756
*N clock:266 *C 32.524 20.198
*N clock:267 *C 32.524 19.770
*N clock:268 *C 32.511 19.756
*N clock:269 *C 32.524 19.744
*N clock:270 *C 32.511 19.756
*N clock:271 *C 32.524 19.770
*N clock:272 *C 32.524 22.175
*N clock:273 *C 32.524 22.188
*N clock:274 *C 32.524 23.404
*N clock:275 *C 34.348 23.404
*N clock:276 *C 34.364 22.188
*N clock:277 *C 37.678 22.188
*N clock:278 *C 37.692 22.175
*N clock:279 *C 37.692 22.188

*CAP
0 clock 0.005843226
1 Transmitter\/Unit1\/baud_clk_reg:CLK 0.001
2 Transmitter\/Unit1\/clock_ticks_reg[10]:CLK 0.001
3 Transmitter\/Unit1\/clock_ticks_reg[8]:CLK 0.001
4 Transmitter\/Unit1\/clock_ticks_reg[9]:CLK 0.001
5 Transmitter\/Unit1\/clock_ticks_reg[7]:CLK 0.001
6 Transmitter\/Unit1\/clock_ticks_reg[5]:CLK 0.001
7 Reciever\/Unit1\/clock_ticks_reg[0]:CLK 0.001
8 Reciever\/Unit1\/clock_ticks_reg[1]:CLK 0.001
9 Reciever\/Unit1\/clock_ticks_reg[2]:CLK 0.001
10 Reciever\/Unit1\/clock_ticks_reg[3]:CLK 0.001
11 Reciever\/Unit1\/clock_ticks_reg[5]:CLK 0.001
12 Reciever\/Unit1\/clock_ticks_reg[4]:CLK 0.001
13 Reciever\/Unit1\/clock_ticks_reg[6]:CLK 0.001
14 Reciever\/Unit1\/clock_ticks_reg[8]:CLK 0.001
15 Reciever\/Unit1\/baud_clk_reg:CLK 0.001
16 Transmitter\/Unit1\/clock_ticks_reg[11]:CLK 0.001
17 Transmitter\/Unit1\/clock_ticks_reg[13]:CLK 0.001
18 Transmitter\/Unit1\/clock_ticks_reg[1]:CLK 0.001
19 Transmitter\/Unit1\/clock_ticks_reg[2]:CLK 0.001
20 Transmitter\/Unit1\/clock_ticks_reg[3]:CLK 0.001
21 Transmitter\/Unit1\/clock_ticks_reg[4]:CLK 0.001
22 Reciever\/Unit1\/clock_ticks_reg[9]:CLK 0.001
23 Reciever\/Unit1\/clock_ticks_reg[7]:CLK 0.001
24 Transmitter\/Unit1\/clock_ticks_reg[6]:CLK 0.001
25 Transmitter\/Unit1\/clock_ticks_reg[0]:CLK 0.001
26 Transmitter\/Unit1\/clock_ticks_reg[12]:CLK 0.001
27 clock:27 0.0102419
28 clock:28 0.01330123
29 clock:29 0.01276491
30 clock:30 0.01801263
31 clock:31 0.01944531
32 clock:32 0.008021021
33 clock:33 0.008558416
34 clock:34 0.0138081
35 clock:35 0.04216663
36 clock:36 0.01214858
37 clock:37 0.01408096
38 clock:38 0.00820816
39 clock:39 0.009640838
40 clock:40 0.00933707
41 clock:41 0.007405762
42 clock:42 0.01237638
43 clock:43 0.01228853
44 clock:44 0.01104349
45 clock:45 0.009117901
46 clock:46 0.01055058
47 clock:47 0.0062996
48 clock:48 0.007545711
49 clock:49 0.1089229
50 clock:50 0.1919987
51 clock:51 0.1307065
52 clock:52 0.05235193
53 clock:53 0.01149165
54 clock:54 0.01109607
55 clock:55 0.007702639
56 clock:56 0.009135318
57 clock:57 0.007712666
58 clock:58 0.007713213
59 clock:59 0.006353255
60 clock:60 0.006749863
61 clock:61 0.1328729
62 clock:62 0.1328729
63 clock:63 0.01124436
64 clock:64 0.01055681
65 clock:65 0.01209994
66 clock:66 0.005922827
67 clock:67 0.00581292
68 clock:68 0.007193866
69 clock:69 0.007194392
70 clock:70 0.1608668
71 clock:71 0.01136628
72 clock:72 0.02252343
73 clock:73 0.01634631
74 clock:74 0.006622395
75 clock:75 0.007895725
76 clock:76 0.007896251
77 clock:77 0.3102008
78 clock:78 0.01214223
79 clock:79 0.01595864
80 clock:80 0.009781528
81 clock:81 0.007398336
82 clock:82 0.008721674
83 clock:83 0.008722201
84 clock:84 0.1756906
85 clock:85 0.01274216
86 clock:86 0.08966535
87 clock:87 0.08966535
88 clock:88 0.1633533
89 clock:89 0.01141708
90 clock:90 0.01092716
91 clock:91 0.01096223
92 clock:92 0.008481667
93 clock:93 0.009914345
94 clock:94 0.006218345
95 clock:95 0.00618434
96 clock:96 0.006675289
97 clock:97 0.07899697
98 clock:98 0.07899697
99 clock:99 0.3212117
100 clock:100 0.01115872
101 clock:101 0.01115624
102 clock:102 0.009027275
103 clock:103 0.01045995
104 clock:104 0.006412349
105 clock:105 0.006415904
106 clock:106 0.01362028
107 clock:107 0.01362079
108 clock:108 0.08383328
109 clock:109 0.08383328
110 clock:110 0.2071465
111 clock:111 0.1006327
112 clock:112 0.06370087
113 clock:113 0.02393062
114 clock:114 0.01174602
115 clock:115 0.01216028
116 clock:116 0.01733026
117 clock:117 0.01346461
118 clock:118 0.007287491
119 clock:119 0.01258638
120 clock:120 0.00741746
121 clock:121 0.007004231
122 clock:122 0.365959
123 clock:123 0.3838311
124 clock:124 0.03943213
125 clock:125 0.0141912
126 clock:126 0.01801263
127 clock:127 0.01944531
128 clock:128 0.00944731
129 clock:129 0.01448249
130 clock:130 0.01448301
131 clock:131 0.02404114
132 clock:132 0.01254306
133 clock:133 0.01239354
134 clock:134 0.008288455
135 clock:135 0.009721134
136 clock:136 0.007649646
137 clock:137 0.007800238
138 clock:138 0.01145034
139 clock:139 0.07941613
140 clock:140 0.01139535
141 clock:141 0.01184088
142 clock:142 0.007008587
143 clock:143 0.008441266
144 clock:144 0.007096985
145 clock:145 0.006652532
146 clock:146 0.01274598
147 clock:147 0.01274649
148 clock:148 0.1191676
149 clock:149 0.1571426
150 clock:150 0.01003598
151 clock:151 0.01992656
152 clock:152 0.02135923
153 clock:153 0.007307365
154 clock:154 0.007307911
155 clock:155 0.00529316
156 clock:156 0.01230749
157 clock:157 0.01230799
158 clock:158 0.1431035
159 clock:159 0.01151725
160 clock:160 0.01225147
161 clock:161 0.008223748
162 clock:162 0.009656426
163 clock:163 0.007507577
164 clock:164 0.006774433
165 clock:165 0.02187942
166 clock:166 0.01167408
167 clock:167 0.008847694
168 clock:168 0.01028037
169 clock:169 0.01364517
170 clock:170 0.01364517
171 clock:171 0.01528771
172 clock:172 0.01528771
173 clock:173 0.007558719
174 clock:174 0.007559265
175 clock:175 0.006931264
176 clock:176 0.02266623
177 clock:177 0.0469173
178 clock:178 0.3066365
179 clock:179 0.0109894
180 clock:180 0.01090269
181 clock:181 0.01926759
182 clock:182 0.02070027
183 clock:183 0.00887318
184 clock:184 0.008873725
185 clock:185 0.006159875
186 clock:186 0.006247615
187 clock:187 0.3967609
188 clock:188 0.1976236
189 clock:189 0.03103385
190 clock:190 0.03246653
191 clock:191 0.01092338
192 clock:192 0.01092392
193 clock:193 0.04015454
194 clock:194 0.04015506
195 clock:195 0.1897199
196 clock:196 0.01156904
197 clock:197 0.02199025
198 clock:198 0.02342293
199 clock:199 0.006825149
200 clock:200 0.03709977
201 clock:201 0.03710029
202 clock:202 0.4011395
203 clock:203 0.01246078
204 clock:204 0.01968203
205 clock:205 0.02111471
206 clock:206 0.00771689
207 clock:207 0.03592734
208 clock:208 0.03592786
209 clock:209 0.2551925
210 clock:210 0.1629091
211 clock:211 0.1638972
212 clock:212 0.01155854
213 clock:213 0.01151347
214 clock:214 0.02249202
215 clock:215 0.0239247
216 clock:216 0.009256346
217 clock:217 0.009256892
218 clock:218 0.006770654
219 clock:219 0.006816749
220 clock:220 0.1177207
221 clock:221 0.1412982
222 clock:222 0.0188362
223 clock:223 0.01246365
224 clock:224 0.008222792
225 clock:225 0.00965547
226 clock:226 0.009293416
227 clock:227 0.009293961
228 clock:228 0.007720837
229 clock:229 0.2779706
230 clock:230 0.2147915
231 clock:231 0.00446187
232 clock:232 0.0127545
233 clock:233 0.01345243
234 clock:234 0.02206755
235 clock:235 0.02350023
236 clock:236 0.008708543
237 clock:237 0.008011681
238 clock:238 0.04696318
239 clock:239 0.0108442
240 clock:240 0.01886866
241 clock:241 0.02030134
242 clock:242 0.008918234
243 clock:243 0.008918781
244 clock:244 0.006101382
245 clock:245 0.09841577
246 clock:246 0.1176636
247 clock:247 0.06384033
248 clock:248 0.1240287
249 clock:249 0.1240287
250 clock:250 0.2513921
251 clock:251 0.01139023
252 clock:252 0.01093519
253 clock:253 0.01133081
254 clock:254 0.03042457
255 clock:255 0.03185725
256 clock:256 0.006586918
257 clock:257 0.006192368
258 clock:258 0.006648442
259 clock:259 0.1081856
260 clock:260 0.1081856
261 clock:261 0.3874853
262 clock:262 0.1903103
263 clock:263 0.01129359
264 clock:264 0.01040018
265 clock:265 0.01047785
266 clock:266 0.01914064
267 clock:267 0.02057332
268 clock:268 0.005733956
269 clock:269 0.005657367
270 clock:270 0.006551798
271 clock:271 0.1107153
272 clock:272 0.1107153
273 clock:273 0.05244415
274 clock:274 0.1325233
275 clock:275 0.1360454
276 clock:276 0.1616316
277 clock:277 0.1062977
278 clock:278 0.005499087
279 clock:279 0.003471555

*RES
0 clock clock:279 0.09166667
1 clock:278 clock:277 0.5
2 clock:278 clock:27 0.2825
3 clock:277 clock:276 5.918751
4 clock:279 clock:278 0.5
5 clock:33 clock:32 0.5
6 clock:33 clock:28 0.2825
7 clock:34 clock:33 0.5
8 clock:32 clock:31 0.5
9 clock:32 clock:29 0.2825
10 clock:31 clock:30 0.2325
11 clock:30 Transmitter\/Unit1\/clock_ticks_reg[12]:CLK 1
12 clock:130 clock:129 0.5392857
13 clock:131 clock:130 0.5
14 clock:131 clock:124 0.5
15 clock:131 clock:35 1.083929
16 clock:128 clock:127 0.5
17 clock:128 clock:125 0.2825
18 clock:129 clock:128 0.5
19 clock:127 clock:126 0.2325
20 clock:126 Transmitter\/Unit1\/clock_ticks_reg[11]:CLK 1
21 clock:41 clock:40 0.5
22 clock:41 clock:36 0.2825
23 clock:42 clock:41 0.5
24 clock:40 clock:39 0.5
25 clock:40 clock:37 0.2825
26 clock:39 clock:38 0.2325
27 clock:38 Transmitter\/Unit1\/clock_ticks_reg[0]:CLK 1
28 clock:112 clock:111 1.013333
29 clock:112 clock:42 0.4946429
30 clock:113 clock:112 0.5
31 clock:124 clock:123 0.5066667
32 clock:121 clock:120 0.5
33 clock:121 clock:114 0.2825
34 clock:122 clock:121 0.5
35 clock:122 clock:113 0.3800001
36 clock:120 clock:119 0.5
37 clock:120 clock:115 0.2825
38 clock:119 clock:118 0.5
39 clock:119 clock:116 0.2825
40 clock:118 Transmitter\/Unit1\/clock_ticks_reg[13]:CLK 1
41 clock:118 clock:117 0.2825
42 clock:110 clock:109 0.5
43 clock:110 clock:99 3.546667
44 clock:109 clock:108 3.208929
45 clock:107 clock:106 0.4946429
46 clock:108 clock:107 0.5
47 clock:105 clock:104 0.5
48 clock:105 clock:100 0.2825
49 clock:106 clock:105 0.5
50 clock:104 clock:103 0.5
51 clock:104 clock:101 0.2825
52 clock:103 clock:102 0.2325
53 clock:102 Transmitter\/Unit1\/clock_ticks_reg[1]:CLK 1
54 clock:273 clock:272 0.5
55 clock:273 clock:262 0.01
56 clock:272 clock:271 4.294643
57 clock:270 clock:269 0.5
58 clock:270 clock:263 0.2825
59 clock:271 clock:270 0.5
60 clock:269 clock:268 0.5
61 clock:269 clock:264 0.2825
62 clock:268 clock:267 0.5
63 clock:268 clock:265 0.2825
64 clock:267 clock:266 0.7660714
65 clock:266 Transmitter\/Unit1\/baud_clk_reg:CLK 1
66 clock:99 clock:98 0.5
67 clock:99 clock:88 3.546667
68 clock:98 clock:97 3.208929
69 clock:96 clock:95 0.5
70 clock:96 clock:89 0.2825
71 clock:97 clock:96 0.5
72 clock:95 clock:94 0.5
73 clock:95 clock:90 0.2825
74 clock:94 clock:93 0.5
75 clock:94 clock:91 0.2825
76 clock:93 clock:92 0.2325
77 clock:92 Transmitter\/Unit1\/clock_ticks_reg[2]:CLK 1
78 clock:261 clock:260 0.5
79 clock:261 clock:250 4.56
80 clock:260 clock:259 4.294643
81 clock:258 clock:257 0.5
82 clock:258 clock:251 0.2825
83 clock:259 clock:258 0.5
84 clock:257 clock:256 0.5
85 clock:257 clock:252 0.2825
86 clock:256 clock:255 0.5
87 clock:256 clock:253 0.2825
88 clock:255 clock:254 0.7660714
89 clock:254 Transmitter\/Unit1\/clock_ticks_reg[10]:CLK 1
90 clock:88 clock:87 0.5
91 clock:88 clock:52 0.01
92 clock:87 clock:86 1.52
93 clock:85 clock:84 0.2533334
94 clock:86 clock:85 0.5
95 clock:83 clock:82 0.2325
96 clock:84 clock:83 0.5
97 clock:84 clock:77 3.546667
98 clock:81 clock:80 0.5
99 clock:81 clock:78 0.2825
100 clock:82 clock:81 0.5
101 clock:80 Transmitter\/Unit1\/clock_ticks_reg[3]:CLK 1
102 clock:80 clock:79 0.2825
103 clock:237 clock:236 0.5
104 clock:237 clock:232 0.2825
105 clock:238 clock:237 0.5
106 clock:236 clock:235 0.5
107 clock:236 clock:233 0.2825
108 clock:235 clock:234 0.7660714
109 clock:234 Transmitter\/Unit1\/clock_ticks_reg[9]:CLK 1
110 clock:250 clock:249 0.5
111 clock:250 clock:231 0.01
112 clock:250 clock:230 1.013333
113 clock:249 clock:248 2.026667
114 clock:247 clock:246 0.2545833
115 clock:247 clock:238 2.123214
116 clock:248 clock:247 0.5
117 clock:76 clock:75 0.2325
118 clock:77 clock:76 0.5
119 clock:77 clock:70 3.546667
120 clock:74 clock:73 0.5
121 clock:74 clock:71 0.2825
122 clock:75 clock:74 0.5
123 clock:73 Transmitter\/Unit1\/clock_ticks_reg[4]:CLK 1
124 clock:73 clock:72 0.2825
125 clock:244 clock:243 0.5
126 clock:244 clock:239 0.2825
127 clock:245 clock:244 0.5
128 clock:243 clock:242 0.2325
129 clock:241 clock:240 0.7660715
130 clock:242 clock:241 0.5
131 clock:240 Transmitter\/Unit1\/clock_ticks_reg[8]:CLK 1
132 clock:48 clock:47 0.5
133 clock:48 clock:43 0.2825
134 clock:49 clock:48 0.5
135 clock:47 clock:46 0.5
136 clock:47 clock:44 0.2825
137 clock:46 clock:45 0.2325
138 clock:45 Transmitter\/Unit1\/clock_ticks_reg[6]:CLK 1
139 clock:228 clock:227 0.5
140 clock:228 clock:223 0.2825
141 clock:229 clock:228 0.5
142 clock:229 clock:222 0.5
143 clock:229 clock:211 2.533333
144 clock:227 clock:226 0.2325
145 clock:225 clock:224 0.2325
146 clock:226 clock:225 0.5
147 clock:224 Transmitter\/Unit1\/clock_ticks_reg[7]:CLK 1
148 clock:222 clock:221 0.2433334
149 clock:219 clock:218 0.5
150 clock:219 clock:212 0.2825
151 clock:220 clock:219 0.5
152 clock:218 clock:217 0.5
153 clock:218 clock:213 0.2825
154 clock:217 clock:216 0.2325
155 clock:215 clock:214 0.7660714
156 clock:216 clock:215 0.5
157 clock:214 Transmitter\/Unit1\/clock_ticks_reg[5]:CLK 1
158 clock:69 clock:68 0.2325
159 clock:70 clock:69 0.5
160 clock:70 clock:63 0.2533333
161 clock:67 clock:66 0.5
162 clock:67 clock:64 0.2825
163 clock:68 clock:67 0.5
164 clock:66 Reciever\/Unit1\/clock_ticks_reg[9]:CLK 1
165 clock:66 clock:65 0.2825
166 clock:63 clock:62 0.5
167 clock:62 clock:61 5.380358
168 clock:60 clock:59 0.5
169 clock:60 clock:53 0.2825
170 clock:61 clock:60 0.5
171 clock:59 clock:58 0.5
172 clock:59 clock:54 0.2825
173 clock:58 clock:57 0.2325
174 clock:56 clock:55 0.2325
175 clock:57 clock:56 0.5
176 clock:55 Reciever\/Unit1\/clock_ticks_reg[7]:CLK 1
177 clock:137 clock:136 0.5
178 clock:137 clock:132 0.2825
179 clock:138 clock:137 0.5
180 clock:136 clock:135 0.5
181 clock:136 clock:133 0.2825
182 clock:135 clock:134 0.2325
183 clock:134 Reciever\/Unit1\/baud_clk_reg:CLK 1
184 clock:208 clock:207 1.580357
185 clock:209 clock:208 0.5
186 clock:209 clock:202 4.56
187 clock:206 clock:205 0.5
188 clock:206 clock:203 0.2825
189 clock:207 clock:206 0.5
190 clock:205 clock:204 0.7660714
191 clock:204 Reciever\/Unit1\/clock_ticks_reg[0]:CLK 1
192 clock:201 clock:200 1.580357
193 clock:202 clock:201 0.5
194 clock:202 clock:195 4.053334
195 clock:199 clock:198 0.5
196 clock:199 clock:196 0.2825
197 clock:200 clock:199 0.5
198 clock:198 clock:197 0.7660714
199 clock:197 Reciever\/Unit1\/clock_ticks_reg[1]:CLK 1
200 clock:177 clock:176 1.061607
201 clock:177 clock:165 1.082143
202 clock:178 clock:177 0.5
203 clock:178 clock:158 2.026667
204 clock:194 clock:193 1.580357
205 clock:195 clock:194 0.5
206 clock:195 clock:188 0.5
207 clock:192 clock:191 0.2325
208 clock:193 clock:192 0.5
209 clock:190 clock:189 0.7660714
210 clock:191 clock:190 0.5
211 clock:189 Reciever\/Unit1\/clock_ticks_reg[2]:CLK 1
212 clock:188 clock:187 3.546667
213 clock:164 clock:163 0.5
214 clock:164 clock:159 0.2825
215 clock:165 clock:164 0.5
216 clock:163 clock:162 0.5
217 clock:163 clock:160 0.2825
218 clock:162 clock:161 0.2325
219 clock:161 Reciever\/Unit1\/clock_ticks_reg[4]:CLK 1
220 clock:186 clock:185 0.5
221 clock:186 clock:179 0.2825
222 clock:187 clock:186 0.5
223 clock:187 clock:178 3.546667
224 clock:185 clock:184 0.5
225 clock:185 clock:180 0.2825
226 clock:184 clock:183 0.2325
227 clock:182 clock:181 0.7660714
228 clock:183 clock:182 0.5
229 clock:181 Reciever\/Unit1\/clock_ticks_reg[3]:CLK 1
230 clock:147 clock:146 0.4946429
231 clock:148 clock:147 0.5
232 clock:145 clock:144 0.5
233 clock:145 clock:140 0.2825
234 clock:146 clock:145 0.5
235 clock:144 clock:143 0.5
236 clock:144 clock:141 0.2825
237 clock:143 clock:142 0.2325
238 clock:142 Reciever\/Unit1\/clock_ticks_reg[8]:CLK 1
239 clock:157 clock:156 0.4946429
240 clock:158 clock:157 0.5
241 clock:158 clock:149 0.6233334
242 clock:155 clock:154 0.5
243 clock:155 clock:150 0.2825
244 clock:156 clock:155 0.5
245 clock:154 clock:153 0.2325
246 clock:152 clock:151 0.7660714
247 clock:153 clock:152 0.5
248 clock:151 Reciever\/Unit1\/clock_ticks_reg[6]:CLK 1
249 clock:175 clock:174 0.5
250 clock:175 clock:166 0.2825
251 clock:176 clock:175 0.5
252 clock:174 clock:173 0.2325
253 clock:172 clock:171 0.4946428
254 clock:173 clock:172 0.5
255 clock:171 clock:170 0.5
256 clock:170 clock:169 0.4946429
257 clock:168 clock:167 0.2325
258 clock:169 clock:168 0.5
259 clock:167 Reciever\/Unit1\/clock_ticks_reg[5]:CLK 1
260 clock:210 clock:209 1.013333
261 clock:210 clock:139 3.257143
262 clock:139 clock:138 0.51875
263 clock:211 clock:210 1.013333
264 clock:230 clock:229 3.546667
265 clock:50 clock:49 5.697322
266 clock:246 clock:245 4.883036
267 clock:51 clock:50 1.636667
268 clock:262 clock:261 4.053334
269 clock:52 clock:51 1.013333
270 clock:111 clock:110 1.013333
271 clock:274 clock:273 1.013333
272 clock:275 clock:274 1.52
273 clock:275 clock:131 0.01
274 clock:35 clock:34 0.5187501
275 clock:276 clock:275 1.013333
276 clock:149 clock:148 5.154464
277 clock:221 clock:220 4.883036
278 clock:123 clock:122 5.700001

*END

*D_NET parity_type[1] 1.563275 //LENGTH 17.758 LUMPCC 0 DR

*CONN
*P parity_type[1] I *L 0 *C 0.258 35.564
*I Reciever\/Unit4\/U13:A2 I *L 0.536088 *C 1.212 21.124
*I Reciever\/Unit4\/U12:A3 I *L 0.44336 *C 0.604 19.452
*N parity_type[1]:3 *C 0.604 19.466
*N parity_type[1]:4 *C 1.212 21.124
*N parity_type[1]:5 *C 1.212 21.264
*N parity_type[1]:6 *C 1.199 21.276
*N parity_type[1]:7 *C 0.618 21.276
*N parity_type[1]:8 *C 0.604 21.262
*N parity_type[1]:9 *C 0.452 21.276
*N parity_type[1]:10 *C 0.452 35.550
*N parity_type[1]:11 *C 0.439 35.564

*CAP
0 parity_type[1] 0.01090906
1 Reciever\/Unit4\/U13:A2 0.001
2 Reciever\/Unit4\/U12:A3 0.001
3 parity_type[1]:3 0.1067738
4 parity_type[1]:4 0.01163883
5 parity_type[1]:5 0.01307151
6 parity_type[1]:6 0.0279773
7 parity_type[1]:7 0.0279773
8 parity_type[1]:8 0.1182346
9 parity_type[1]:9 0.624278
10 parity_type[1]:10 0.6118777
11 parity_type[1]:11 0.008536843

*RES
0 parity_type[1] parity_type[1]:11 0.3223214
1 parity_type[1]:8 parity_type[1]:7 0.5
2 parity_type[1]:8 parity_type[1]:3 3.208929
3 parity_type[1]:7 parity_type[1]:6 1.0375
4 parity_type[1]:5 parity_type[1]:4 0.2325
5 parity_type[1]:6 parity_type[1]:5 0.5
6 parity_type[1]:4 Reciever\/Unit4\/U13:A2 1
7 parity_type[1]:3 Reciever\/Unit4\/U12:A3 1
8 parity_type[1]:10 parity_type[1]:9 25.49018
9 parity_type[1]:11 parity_type[1]:10 0.5
10 parity_type[1]:9 parity_type[1]:8 0.2714286

*END

*D_NET parity_type[0] 0.9594935 //LENGTH 10.351 LUMPCC 0 DR

*CONN
*P parity_type[0] I *L 0 *C 0.258 8.204
*I Reciever\/Unit4\/U7:A I *L 0.577904 *C 0.604 17.932
*N parity_type[0]:2 *C 0.604 17.919
*N parity_type[0]:3 *C 0.604 8.812
*N parity_type[0]:4 *C 0.452 8.812
*N parity_type[0]:5 *C 0.452 8.218
*N parity_type[0]:6 *C 0.439 8.204

*CAP
0 parity_type[0] 0.01031219
1 Reciever\/Unit4\/U7:A 0.001
2 parity_type[0]:2 0.4242361
3 parity_type[0]:3 0.4364956
4 parity_type[0]:4 0.04516819
5 parity_type[0]:5 0.03434138
6 parity_type[0]:6 0.007939967

*RES
0 parity_type[0] parity_type[0]:6 0.3223215
1 parity_type[0]:2 Reciever\/Unit4\/U7:A 1
2 parity_type[0]:5 parity_type[0]:4 1.061607
3 parity_type[0]:6 parity_type[0]:5 0.5
4 parity_type[0]:4 parity_type[0]:3 0.2714286
5 parity_type[0]:3 parity_type[0]:2 16.26161

*END

*D_NET baud_rate[1] 2.173822 //LENGTH 26.590 LUMPCC 0 DR

*CONN
*P baud_rate[1] I *L 0 *C 37.734 29.180
*I Transmitter\/Unit1\/U48:A2 I *L 0.46235 *C 28.116 29.484
*I Transmitter\/Unit1\/U45:A1 I *L 0.545591 *C 22.948 29.788
*I Transmitter\/Unit1\/U3:A I *L 0.577904 *C 22.036 29.484
*I Reciever\/Unit1\/U33:A1 I *L 0.545591 *C 17.476 27.660
*I Reciever\/Unit1\/U11:A I *L 0.577904 *C 16.108 29.484
*I Reciever\/Unit1\/U35:A1 I *L 0.545591 *C 16.866 29.816
*N baud_rate[1]:7 *C 16.729 29.788
*N baud_rate[1]:8 *C 16.715 29.788
*N baud_rate[1]:9 *C 16.108 29.498
*N baud_rate[1]:10 *C 16.108 29.788
*N baud_rate[1]:11 *C 16.122 29.788
*N baud_rate[1]:12 *C 17.476 29.788
*N baud_rate[1]:13 *C 17.476 27.661
*N baud_rate[1]:14 *C 17.476 29.471
*N baud_rate[1]:15 *C 17.476 29.484
*N baud_rate[1]:16 *C 22.036 29.302
*N baud_rate[1]:17 *C 22.036 29.472
*N baud_rate[1]:18 *C 22.036 29.484
*N baud_rate[1]:19 *C 22.948 29.787
*N baud_rate[1]:20 *C 22.948 29.498
*N baud_rate[1]:21 *C 22.948 29.484
*N baud_rate[1]:22 *C 28.116 29.352
*N baud_rate[1]:23 *C 28.116 29.472
*N baud_rate[1]:24 *C 28.116 29.483
*N baud_rate[1]:25 *C 28.116 29.180

*CAP
0 baud_rate[1] 0.3696566
1 Transmitter\/Unit1\/U48:A2 0.001
2 Transmitter\/Unit1\/U45:A1 0.001
3 Transmitter\/Unit1\/U3:A 0.001
4 Reciever\/Unit1\/U33:A1 0.001
5 Reciever\/Unit1\/U11:A 0.001
6 Reciever\/Unit1\/U35:A1 0.01474703
7 baud_rate[1]:7 0.01267163
8 baud_rate[1]:8 0.025319
9 baud_rate[1]:9 0.01626913
10 baud_rate[1]:10 0.0450962
11 baud_rate[1]:11 0.05704186
12 baud_rate[1]:12 0.07143334
13 baud_rate[1]:13 0.09930456
14 baud_rate[1]:14 0.1007372
15 baud_rate[1]:15 0.1947431
16 baud_rate[1]:16 0.012081
17 baud_rate[1]:17 0.005903885
18 baud_rate[1]:18 0.2160099
19 baud_rate[1]:19 0.01797131
20 baud_rate[1]:20 0.01940398
21 baud_rate[1]:21 0.2569586
22 baud_rate[1]:22 0.0130356
23 baud_rate[1]:23 0.005054586
24 baud_rate[1]:24 0.2337112
25 baud_rate[1]:25 0.3816722

*RES
0 baud_rate[1] baud_rate[1]:25 17.175
1 baud_rate[1]:23 Transmitter\/Unit1\/U48:A2 1
2 baud_rate[1]:23 baud_rate[1]:22 0.1991667
3 baud_rate[1]:24 baud_rate[1]:23 0.5
4 baud_rate[1]:24 baud_rate[1]:21 9.228572
5 baud_rate[1]:20 baud_rate[1]:19 0.5169643
6 baud_rate[1]:21 baud_rate[1]:20 0.5
7 baud_rate[1]:21 baud_rate[1]:18 1.628572
8 baud_rate[1]:19 Transmitter\/Unit1\/U45:A1 1
9 baud_rate[1]:17 Transmitter\/Unit1\/U3:A 1
10 baud_rate[1]:17 baud_rate[1]:16 0.2825
11 baud_rate[1]:18 baud_rate[1]:17 0.5
12 baud_rate[1]:18 baud_rate[1]:15 8.142858
13 baud_rate[1]:14 baud_rate[1]:13 3.23125
14 baud_rate[1]:15 baud_rate[1]:14 0.5
15 baud_rate[1]:15 baud_rate[1]:12 0.5428572
16 baud_rate[1]:13 Reciever\/Unit1\/U33:A1 1
17 baud_rate[1]:7 Reciever\/Unit1\/U35:A1 0.2283333
18 baud_rate[1]:8 baud_rate[1]:7 1
19 baud_rate[1]:10 baud_rate[1]:9 0.51875
20 baud_rate[1]:10 baud_rate[1]:8 1.083929
21 baud_rate[1]:11 baud_rate[1]:10 0.5
22 baud_rate[1]:9 Reciever\/Unit1\/U11:A 1
23 baud_rate[1]:12 baud_rate[1]:11 2.41875
24 baud_rate[1]:25 baud_rate[1]:24 0.5410715

*END

*D_NET baud_rate[0] 2.452195 //LENGTH 28.433 LUMPCC 0 DR

*CONN
*P baud_rate[0] I *L 0 *C 37.734 29.788
*I Transmitter\/Unit1\/U48:A1 I *L 0.545591 *C 27.964 29.788
*I Transmitter\/Unit1\/U43:A1 I *L 0.545591 *C 23.860 27.660
*I Transmitter\/Unit1\/U6:A I *L 0.577904 *C 21.428 27.964
*I Reciever\/Unit1\/U33:A2 I *L 0.46235 *C 17.324 27.964
*I Reciever\/Unit1\/U10:A I *L 0.577904 *C 16.108 27.964
*I Reciever\/Unit1\/U37:A1 I *L 0.545591 *C 14.284 29.788
*N baud_rate[0]:7 *C 14.284 29.787
*N baud_rate[0]:8 *C 14.284 28.890
*N baud_rate[0]:9 *C 14.298 28.876
*N baud_rate[0]:10 *C 16.095 28.876
*N baud_rate[0]:11 *C 16.108 28.863
*N baud_rate[0]:12 *C 16.108 27.978
*N baud_rate[0]:13 *C 16.122 27.964
*N baud_rate[0]:14 *C 17.324 27.832
*N baud_rate[0]:15 *C 17.324 27.952
*N baud_rate[0]:16 *C 17.324 27.964
*N baud_rate[0]:17 *C 21.428 27.782
*N baud_rate[0]:18 *C 21.428 27.952
*N baud_rate[0]:19 *C 21.428 27.964
*N baud_rate[0]:20 *C 23.860 27.661
*N baud_rate[0]:21 *C 23.860 27.951
*N baud_rate[0]:22 *C 23.860 27.964
*N baud_rate[0]:23 *C 27.951 27.964
*N baud_rate[0]:24 *C 27.964 27.978
*N baud_rate[0]:25 *C 27.964 29.774
*N baud_rate[0]:26 *C 27.978 29.788

*CAP
0 baud_rate[0] 0.385495
1 Transmitter\/Unit1\/U48:A1 0.001
2 Transmitter\/Unit1\/U43:A1 0.001
3 Transmitter\/Unit1\/U6:A 0.001
4 Reciever\/Unit1\/U33:A2 0.001
5 Reciever\/Unit1\/U10:A 0.001
6 Reciever\/Unit1\/U37:A1 0.001
7 baud_rate[0]:7 0.06166575
8 baud_rate[0]:8 0.06309843
9 baud_rate[0]:9 0.08195674
10 baud_rate[0]:10 0.08195674
11 baud_rate[0]:11 0.0434195
12 baud_rate[0]:12 0.0396146
13 baud_rate[0]:13 0.05502868
14 baud_rate[0]:14 0.01468242
15 baud_rate[0]:15 0.006701403
16 baud_rate[0]:16 0.2151683
17 baud_rate[0]:17 0.01263123
18 baud_rate[0]:18 0.006454112
19 baud_rate[0]:19 0.2652447
20 baud_rate[0]:20 0.01802864
21 baud_rate[0]:21 0.01946131
22 baud_rate[0]:22 0.2893403
23 baud_rate[0]:23 0.1838399
24 baud_rate[0]:24 0.1135214
25 baud_rate[0]:25 0.1077396
26 baud_rate[0]:26 0.381146

*RES
0 baud_rate[0] baud_rate[0]:26 17.42232
1 baud_rate[0]:25 Transmitter\/Unit1\/U48:A1 1
2 baud_rate[0]:25 baud_rate[0]:24 3.208929
3 baud_rate[0]:26 baud_rate[0]:25 0.5
4 baud_rate[0]:24 baud_rate[0]:23 0.5
5 baud_rate[0]:23 baud_rate[0]:22 7.304464
6 baud_rate[0]:21 baud_rate[0]:20 0.5169643
7 baud_rate[0]:22 baud_rate[0]:21 0.5
8 baud_rate[0]:22 baud_rate[0]:19 4.342857
9 baud_rate[0]:20 Transmitter\/Unit1\/U43:A1 1
10 baud_rate[0]:18 Transmitter\/Unit1\/U6:A 1
11 baud_rate[0]:18 baud_rate[0]:17 0.2825
12 baud_rate[0]:19 baud_rate[0]:18 0.5
13 baud_rate[0]:19 baud_rate[0]:16 7.328572
14 baud_rate[0]:15 Reciever\/Unit1\/U33:A2 1
15 baud_rate[0]:15 baud_rate[0]:14 0.1991667
16 baud_rate[0]:16 baud_rate[0]:15 0.5
17 baud_rate[0]:16 baud_rate[0]:13 2.147322
18 baud_rate[0]:12 Reciever\/Unit1\/U10:A 1
19 baud_rate[0]:12 baud_rate[0]:11 1.580357
20 baud_rate[0]:13 baud_rate[0]:12 0.5
21 baud_rate[0]:11 baud_rate[0]:10 0.5
22 baud_rate[0]:10 baud_rate[0]:9 3.208929
23 baud_rate[0]:8 baud_rate[0]:7 1.602679
24 baud_rate[0]:9 baud_rate[0]:8 0.5
25 baud_rate[0]:7 Reciever\/Unit1\/U37:A1 1

*END

*D_NET tx_active_flag 0.4482028 //LENGTH 5.983 LUMPCC 0 DR

*CONN
*I Transmitter\/Unit3\/U3:Y O *L 0 *C 34.804 5.924
*P tx_active_flag O *L 0 *C 37.734 3.036
*N tx_active_flag:2 *C 34.818 3.036
*N tx_active_flag:3 *C 34.804 3.050
*N tx_active_flag:4 *C 34.804 5.910

*CAP
0 Transmitter\/Unit3\/U3:Y 0.001
1 tx_active_flag 0.1040528
2 tx_active_flag:2 0.1016806
3 tx_active_flag:3 0.1214511
4 tx_active_flag:4 0.1200184

*RES
0 Transmitter\/Unit3\/U3:Y tx_active_flag:4 1
1 tx_active_flag:4 tx_active_flag:3 5.108929
2 tx_active_flag:3 tx_active_flag:2 0.5
3 tx_active_flag:2 tx_active_flag 5.208036

*END

*D_NET tx_done_flag 4.51267 //LENGTH 51.987 LUMPCC 0 DR

*CONN
*I Transmitter\/Unit3\/U4:Y O *L 0 *C 35.260 14.284
*I Transmitter\/Unit3\/U3:A I *L 0.577904 *C 34.500 6.076
*I Reciever\/Unit2\/U14:A I *L 0.577904 *C 17.324 6.076
*P tx_done_flag O *L 0 *C 0.279 13.980
*N tx_done_flag:4 *C 17.324 6.090
*N tx_done_flag:5 *C 17.324 13.966
*N tx_done_flag:6 *C 17.324 13.980
*N tx_done_flag:7 *C 34.500 5.894
*N tx_done_flag:8 *C 34.500 6.064
*N tx_done_flag:9 *C 34.500 6.076
*N tx_done_flag:10 *C 34.639 6.076
*N tx_done_flag:11 *C 34.652 6.090
*N tx_done_flag:12 *C 34.652 13.966
*N tx_done_flag:13 *C 34.652 13.980
*N tx_done_flag:14 *C 35.247 13.980
*N tx_done_flag:15 *C 35.260 13.994
*N tx_done_flag:16 *C 35.260 14.271

*CAP
0 Transmitter\/Unit3\/U4:Y 0.001
1 Transmitter\/Unit3\/U3:A 0.001
2 Reciever\/Unit2\/U14:A 0.001
3 tx_done_flag 0.7507595
4 tx_done_flag:4 0.4390905
5 tx_done_flag:5 0.4405232
6 tx_done_flag:6 1.470774
7 tx_done_flag:7 0.0120948
8 tx_done_flag:8 0.005917683
9 tx_done_flag:9 0.006540835
10 tx_done_flag:10 0.006541382
11 tx_done_flag:11 0.2754234
12 tx_done_flag:12 0.2754234
13 tx_done_flag:13 0.7521121
14 tx_done_flag:14 0.02972501
15 tx_done_flag:15 0.02308809
16 tx_done_flag:16 0.02165541

*RES
0 Transmitter\/Unit3\/U4:Y tx_done_flag:16 1
1 tx_done_flag:15 tx_done_flag:14 0.5
2 tx_done_flag:14 tx_done_flag:13 1.061607
3 tx_done_flag:16 tx_done_flag:15 0.4946429
4 tx_done_flag:13 tx_done_flag:12 0.5
5 tx_done_flag:13 tx_done_flag:6 30.94286
6 tx_done_flag:12 tx_done_flag:11 14.06607
7 tx_done_flag:10 tx_done_flag:9 0.2325
8 tx_done_flag:11 tx_done_flag:10 0.5
9 tx_done_flag:8 Transmitter\/Unit3\/U3:A 1
10 tx_done_flag:8 tx_done_flag:7 0.2825
11 tx_done_flag:9 tx_done_flag:8 0.5
12 tx_done_flag:5 tx_done_flag:4 14.06607
13 tx_done_flag:6 tx_done_flag:5 0.5
14 tx_done_flag:6 tx_done_flag 30.4375
15 tx_done_flag:4 Reciever\/Unit2\/U14:A 1

*END

*D_NET rx_active_flag 2.040903 //LENGTH 23.667 LUMPCC 0 DR

*CONN
*I Reciever\/Unit2\/active_flag_reg:Q O *L 0 *C 13.980 11.700
*P rx_active_flag O *L 0 *C 0.279 20.972
*N rx_active_flag:2 *C 3.327 20.972
*N rx_active_flag:3 *C 3.340 20.959
*N rx_active_flag:4 *C 3.340 11.562
*N rx_active_flag:5 *C 3.354 11.548
*N rx_active_flag:6 *C 13.966 11.548
*N rx_active_flag:7 *C 13.980 11.548
*N rx_active_flag:8 *C 13.980 11.688

*CAP
0 Reciever\/Unit2\/active_flag_reg:Q 0.001
1 rx_active_flag 0.1152095
2 rx_active_flag:2 0.1128373
3 rx_active_flag:3 0.4369912
4 rx_active_flag:4 0.4369912
5 rx_active_flag:5 0.4611112
6 rx_active_flag:6 0.4611112
7 rx_active_flag:7 0.00851192
8 rx_active_flag:8 0.007138963

*RES
0 Reciever\/Unit2\/active_flag_reg:Q rx_active_flag:8 1
1 rx_active_flag:8 rx_active_flag:7 0.2325
2 rx_active_flag:7 rx_active_flag:6 0.5
3 rx_active_flag:6 rx_active_flag:5 18.95179
4 rx_active_flag:4 rx_active_flag:3 16.78036
5 rx_active_flag:5 rx_active_flag:4 0.5
6 rx_active_flag:3 rx_active_flag:2 0.5
7 rx_active_flag:2 rx_active_flag 5.441964

*END

*D_NET rx_done_flag 1.696335 //LENGTH 17.040 LUMPCC 0 DR

*CONN
*I Reciever\/Unit3\/U17:Y O *L 0 *C 30.244 11.092
*I Reciever\/Unit4\/U16:A2 I *L 0.46235 *C 29.028 11.244
*P rx_done_flag O *L 0 *C 37.734 3.644
*N rx_done_flag:3 *C 32.690 3.644
*N rx_done_flag:4 *C 32.676 3.658
*N rx_done_flag:5 *C 32.676 11.231
*N rx_done_flag:6 *C 32.663 11.244
*N rx_done_flag:7 *C 29.028 11.112
*N rx_done_flag:8 *C 29.028 11.232
*N rx_done_flag:9 *C 29.042 11.244
*N rx_done_flag:10 *C 30.244 11.244
*N rx_done_flag:11 *C 30.244 11.232
*N rx_done_flag:12 *C 30.244 11.092

*CAP
0 Reciever\/Unit3\/U17:Y 0.001
1 Reciever\/Unit4\/U16:A2 0.001
2 rx_done_flag 0.1858166
3 rx_done_flag:3 0.1834444
4 rx_done_flag:4 0.4813758
5 rx_done_flag:5 0.4813758
6 rx_done_flag:6 0.1042838
7 rx_done_flag:7 0.01150032
8 rx_done_flag:8 0.003519306
9 rx_done_flag:9 0.05611753
10 rx_done_flag:10 0.1647504
11 rx_done_flag:11 0.01179191
12 rx_done_flag:12 0.01035923

*RES
0 Reciever\/Unit3\/U17:Y rx_done_flag:12 1
1 rx_done_flag:5 rx_done_flag:4 13.52322
2 rx_done_flag:6 rx_done_flag:5 0.5
3 rx_done_flag:4 rx_done_flag:3 0.5
4 rx_done_flag:3 rx_done_flag 9.008036
5 rx_done_flag:11 rx_done_flag:10 0.5
6 rx_done_flag:10 rx_done_flag:9 2.147322
7 rx_done_flag:10 rx_done_flag:6 4.31875
8 rx_done_flag:12 rx_done_flag:11 0.2325
9 rx_done_flag:8 Reciever\/Unit4\/U16:A2 1
10 rx_done_flag:8 rx_done_flag:7 0.1991667
11 rx_done_flag:9 rx_done_flag:8 0.5

*END

*D_NET data_out[7] 0.3228626 //LENGTH 3.751 LUMPCC 0 DR

*CONN
*I Reciever\/Unit3\/U7:Y O *L 0 *C 0.604 4.860
*I Reciever\/Unit4\/U6:A2 I *L 0.973269 *C 1.060 6.076
*P data_out[7] O *L 0 *C 0.258 7.292
*N data_out[7]:3 *C 0.591 7.292
*N data_out[7]:4 *C 0.604 7.279
*N data_out[7]:5 *C 1.060 5.894
*N data_out[7]:6 *C 1.060 6.064
*N data_out[7]:7 *C 1.046 6.076
*N data_out[7]:8 *C 0.618 6.076
*N data_out[7]:9 *C 0.604 6.076
*N data_out[7]:10 *C 0.604 4.873

*CAP
0 Reciever\/Unit3\/U7:Y 0.001
1 Reciever\/Unit4\/U6:A2 0.001
2 data_out[7] 0.01555523
3 data_out[7]:3 0.01318301
4 data_out[7]:4 0.05489487
5 data_out[7]:5 0.02128328
6 data_out[7]:6 0.01510616
7 data_out[7]:7 0.02051954
8 data_out[7]:8 0.02051954
9 data_out[7]:9 0.1092504
10 data_out[7]:10 0.05055058

*RES
0 Reciever\/Unit3\/U7:Y data_out[7]:10 1
1 data_out[7]:9 data_out[7]:8 0.5
2 data_out[7]:9 data_out[7]:4 2.147322
3 data_out[7]:8 data_out[7]:7 0.7660715
4 data_out[7]:6 Reciever\/Unit4\/U6:A2 1
5 data_out[7]:6 data_out[7]:5 0.2825
6 data_out[7]:7 data_out[7]:6 0.5
7 data_out[7]:10 data_out[7]:9 2.147322
8 data_out[7]:4 data_out[7]:3 0.5
9 data_out[7]:3 data_out[7] 0.5937501

*END

*D_NET data_out[6] 1.415936 //LENGTH 15.429 LUMPCC 0 DR

*CONN
*I Reciever\/Unit3\/U8:Y O *L 0 *C 5.620 18.236
*I Reciever\/Unit4\/U15:A1 I *L 1.134389 *C 9.876 20.516
*P data_out[6] O *L 0 *C 0.258 23.100
*N data_out[6]:3 *C 0.604 23.100
*N data_out[6]:4 *C 0.604 22.796
*N data_out[6]:5 *C 5.759 22.796
*N data_out[6]:6 *C 5.772 22.783
*N data_out[6]:7 *C 9.876 20.504
*N data_out[6]:8 *C 9.876 20.364
*N data_out[6]:9 *C 9.863 20.364
*N data_out[6]:10 *C 5.785 20.364
*N data_out[6]:11 *C 5.772 20.378
*N data_out[6]:12 *C 5.620 20.364
*N data_out[6]:13 *C 5.620 18.250

*CAP
0 Reciever\/Unit3\/U8:Y 0.001
1 Reciever\/Unit4\/U15:A1 0.001
2 data_out[6] 0.01834236
3 data_out[6]:3 0.02990237
4 data_out[6]:4 0.2221089
5 data_out[6]:5 0.2081767
6 data_out[6]:6 0.1467092
7 data_out[6]:7 0.007467835
8 data_out[6]:8 0.008900514
9 data_out[6]:9 0.179834
10 data_out[6]:10 0.179834
11 data_out[6]:11 0.1558291
12 data_out[6]:12 0.1348777
13 data_out[6]:13 0.1219529

*RES
0 Reciever\/Unit3\/U8:Y data_out[6]:13 1
1 data_out[6]:11 data_out[6]:10 0.5
2 data_out[6]:11 data_out[6]:6 4.294643
3 data_out[6]:10 data_out[6]:9 7.280358
4 data_out[6]:8 data_out[6]:7 0.2325
5 data_out[6]:9 data_out[6]:8 0.5
6 data_out[6]:7 Reciever\/Unit4\/U15:A1 1
7 data_out[6]:13 data_out[6]:12 3.775893
8 data_out[6]:6 data_out[6]:5 0.5
9 data_out[6]:5 data_out[6]:4 9.204465
10 data_out[6]:12 data_out[6]:11 0.2714286
11 data_out[6]:3 data_out[6] 0.6178572
12 data_out[6]:4 data_out[6]:3 0.5428572

*END

*D_NET data_out[5] 3.124046 //LENGTH 39.953 LUMPCC 0 DR

*CONN
*I Reciever\/Unit3\/U9:Y O *L 0 *C 5.316 9.116
*I Reciever\/Unit4\/U14:A2 I *L 1.016415 *C 1.060 11.244
*P data_out[5] O *L 0 *C 37.734 10.028
*N data_out[5]:3 *C 23.404 9.846
*N data_out[5]:4 *C 23.418 10.028
*N data_out[5]:5 *C 23.404 10.016
*N data_out[5]:6 *C 23.390 10.028
*N data_out[5]:7 *C 5.785 10.028
*N data_out[5]:8 *C 5.772 10.014
*N data_out[5]:9 *C 5.772 9.738
*N data_out[5]:10 *C 5.759 9.724
*N data_out[5]:11 *C 1.060 11.231
*N data_out[5]:12 *C 1.060 9.738
*N data_out[5]:13 *C 1.074 9.724
*N data_out[5]:14 *C 5.316 9.724
*N data_out[5]:15 *C 5.316 9.710
*N data_out[5]:16 *C 5.316 9.130

*CAP
0 Reciever\/Unit3\/U9:Y 0.001
1 Reciever\/Unit4\/U14:A2 0.001
2 data_out[5] 0.6098306
3 data_out[5]:3 0.01172242
4 data_out[5]:4 0.6074589
5 data_out[5]:5 0.006979604
6 data_out[5]:6 0.583769
7 data_out[5]:7 0.583769
8 data_out[5]:8 0.01256705
9 data_out[5]:9 0.01256652
10 data_out[5]:10 0.01695112
11 data_out[5]:11 0.1221788
12 data_out[5]:12 0.1236115
13 data_out[5]:13 0.1763807
14 data_out[5]:14 0.1957035
15 data_out[5]:15 0.02999518
16 data_out[5]:16 0.02856251

*RES
0 Reciever\/Unit3\/U9:Y data_out[5]:16 1
1 data_out[5]:10 data_out[5]:9 0.5
2 data_out[5]:9 data_out[5]:8 0.4946429
3 data_out[5]:8 data_out[5]:7 0.5
4 data_out[5]:7 data_out[5]:6 31.4375
5 data_out[5]:5 data_out[5]:4 0.5
6 data_out[5]:5 data_out[5]:3 0.2825
7 data_out[5]:6 data_out[5]:5 0.5
8 data_out[5]:4 data_out[5] 25.56518
9 data_out[5]:15 data_out[5]:14 0.5
10 data_out[5]:14 data_out[5]:13 7.575893
11 data_out[5]:14 data_out[5]:10 0.7901787
12 data_out[5]:16 data_out[5]:15 1.0375
13 data_out[5]:12 data_out[5]:11 2.666071
14 data_out[5]:13 data_out[5]:12 0.5
15 data_out[5]:11 Reciever\/Unit4\/U14:A2 1

*END

*D_NET data_out[4] 0.7779701 //LENGTH 7.671 LUMPCC 0 DR

*CONN
*I Reciever\/Unit3\/U10:Y O *L 0 *C 1.706 12.612
*I Reciever\/Unit4\/U14:A1 I *L 1.134389 *C 1.364 10.484
*P data_out[4] O *L 0 *C 0.258 16.412
*N data_out[4]:3 *C 1.351 16.412
*N data_out[4]:4 *C 1.364 16.399
*N data_out[4]:5 *C 1.364 10.498
*N data_out[4]:6 *C 1.364 12.612
*N data_out[4]:7 *C 1.667 12.612
*N data_out[4]:8 *C 1.668 12.612

*CAP
0 Reciever\/Unit3\/U10:Y 0.01098269
1 Reciever\/Unit4\/U14:A1 0.001
2 data_out[4] 0.04578455
3 data_out[4]:3 0.04341233
4 data_out[4]:4 0.1939906
5 data_out[4]:5 0.1243518
6 data_out[4]:6 0.3380679
7 data_out[4]:7 0.01147298
8 data_out[4]:8 0.008907293

*RES
0 Reciever\/Unit3\/U10:Y data_out[4]:8 0.09166668
1 data_out[4]:8 data_out[4]:7 1
2 data_out[4]:7 data_out[4]:6 0.5410715
3 data_out[4]:5 Reciever\/Unit4\/U14:A1 1
4 data_out[4]:4 data_out[4]:3 0.5
5 data_out[4]:3 data_out[4] 1.950893
6 data_out[4]:6 data_out[4]:5 3.775893
7 data_out[4]:6 data_out[4]:4 6.761608

*END

*D_NET data_out[3] 2.840666 //LENGTH 36.975 LUMPCC 0 DR

*CONN
*I Reciever\/Unit3\/U11:Y O *L 0 *C 15.310 17.932
*I Reciever\/Unit4\/U5:A2 I *L 1.005399 *C 17.628 17.932
*P data_out[3] O *L 0 *C 37.734 31.004
*N data_out[3]:3 *C 18.553 31.004
*N data_out[3]:4 *C 18.540 30.991
*N data_out[3]:5 *C 18.540 17.642
*N data_out[3]:6 *C 18.527 17.628
*N data_out[3]:7 *C 17.628 17.919
*N data_out[3]:8 *C 17.628 17.642
*N data_out[3]:9 *C 17.628 17.628
*N data_out[3]:10 *C 15.362 17.628
*N data_out[3]:11 *C 15.348 17.642
*N data_out[3]:12 *C 15.348 17.919
*N data_out[3]:13 *C 15.348 17.932

*CAP
0 Reciever\/Unit3\/U11:Y 0.01122278
1 Reciever\/Unit4\/U5:A2 0.001
2 data_out[3] 0.7861266
3 data_out[3]:3 0.7837549
4 data_out[3]:4 0.4702843
5 data_out[3]:5 0.4702843
6 data_out[3]:6 0.03232807
7 data_out[3]:7 0.01300649
8 data_out[3]:8 0.01443917
9 data_out[3]:9 0.1250332
10 data_out[3]:10 0.0903335
11 data_out[3]:11 0.01670424
12 data_out[3]:12 0.01700106
13 data_out[3]:13 0.009147378

*RES
0 Reciever\/Unit3\/U11:Y data_out[3]:13 0.09166668
1 data_out[3]:6 data_out[3]:5 0.5
2 data_out[3]:5 data_out[3]:4 23.8375
3 data_out[3]:3 data_out[3] 34.25089
4 data_out[3]:4 data_out[3]:3 0.5
5 data_out[3]:8 data_out[3]:7 0.4946429
6 data_out[3]:9 data_out[3]:8 0.5
7 data_out[3]:9 data_out[3]:6 1.604464
8 data_out[3]:7 Reciever\/Unit4\/U5:A2 1
9 data_out[3]:11 data_out[3]:10 0.5
10 data_out[3]:10 data_out[3]:9 4.047322
11 data_out[3]:13 data_out[3]:12 1
12 data_out[3]:12 data_out[3]:11 0.4946429

*END

*D_NET data_out[2] 3.318723 //LENGTH 40.203 LUMPCC 0 DR

*CONN
*I Reciever\/Unit3\/U12:Y O *L 0 *C 18.806 16.108
*I Reciever\/Unit4\/U5:A1 I *L 0.954271 *C 17.324 18.084
*P data_out[2] O *L 0 *C 37.734 34.956
*N data_out[2]:3 *C 20.834 34.956
*N data_out[2]:4 *C 20.820 34.943
*N data_out[2]:5 *C 20.820 18.250
*N data_out[2]:6 *C 20.806 18.236
*N data_out[2]:7 *C 17.324 18.084
*N data_out[2]:8 *C 17.324 18.224
*N data_out[2]:9 *C 17.338 18.236
*N data_out[2]:10 *C 18.692 18.236
*N data_out[2]:11 *C 18.692 18.223
*N data_out[2]:12 *C 18.692 16.108
*N data_out[2]:13 *C 18.843 16.108
*N data_out[2]:14 *C 18.844 16.108

*CAP
0 Reciever\/Unit3\/U12:Y 0.01040665
1 Reciever\/Unit4\/U5:A1 0.001
2 data_out[2] 0.7116125
3 data_out[2]:3 0.7092403
4 data_out[2]:4 0.7052645
5 data_out[2]:5 0.7052645
6 data_out[2]:6 0.07590894
7 data_out[2]:7 0.00795
8 data_out[2]:8 0.009382678
9 data_out[2]:9 0.05278381
10 data_out[2]:10 0.131065
11 data_out[2]:11 0.08655457
12 data_out[2]:12 0.09748031
13 data_out[2]:13 0.006478127
14 data_out[2]:14 0.008331255

*RES
0 Reciever\/Unit3\/U12:Y data_out[2]:14 0.09166668
1 data_out[2]:5 data_out[2]:4 29.80893
2 data_out[2]:6 data_out[2]:5 0.5
3 data_out[2]:4 data_out[2]:3 0.5
4 data_out[2]:3 data_out[2] 30.17947
5 data_out[2]:11 data_out[2]:10 0.5
6 data_out[2]:10 data_out[2]:9 2.41875
7 data_out[2]:10 data_out[2]:6 3.775893
8 data_out[2]:14 data_out[2]:13 1
9 data_out[2]:13 data_out[2]:12 0.2696429
10 data_out[2]:8 data_out[2]:7 0.2325
11 data_out[2]:9 data_out[2]:8 0.5
12 data_out[2]:7 Reciever\/Unit4\/U5:A1 1
13 data_out[2]:12 data_out[2]:11 3.775893

*END

*D_NET data_out[1] 0.6372578 //LENGTH 7.073 LUMPCC 0 DR

*CONN
*I Reciever\/Unit3\/U13:Y O *L 0 *C 3.074 6.076
*I Reciever\/Unit4\/U6:A1 I *L 1.174364 *C 1.364 5.924
*P data_out[1] O *L 0 *C 0.258 9.420
*N data_out[1]:3 *C 1.351 9.420
*N data_out[1]:4 *C 1.364 9.407
*N data_out[1]:5 *C 1.364 5.938
*N data_out[1]:6 *C 1.364 6.380
*N data_out[1]:7 *C 1.378 6.380
*N data_out[1]:8 *C 3.022 6.380
*N data_out[1]:9 *C 3.036 6.367
*N data_out[1]:10 *C 3.036 6.090
*N data_out[1]:11 *C 3.036 6.076

*CAP
0 Reciever\/Unit3\/U13:Y 0.01170626
1 Reciever\/Unit4\/U6:A1 0.001
2 data_out[1] 0.05353537
3 data_out[1]:3 0.05116316
4 data_out[1]:4 0.1351012
5 data_out[1]:5 0.02715356
6 data_out[1]:6 0.1660597
7 data_out[1]:7 0.07417064
8 data_out[1]:8 0.07417064
9 data_out[1]:9 0.01663478
10 data_out[1]:10 0.0169316
11 data_out[1]:11 0.009630862

*RES
0 Reciever\/Unit3\/U13:Y data_out[1]:11 0.09166668
1 data_out[1]:6 data_out[1]:5 0.7901786
2 data_out[1]:6 data_out[1]:4 5.404464
3 data_out[1]:7 data_out[1]:6 0.5
4 data_out[1]:9 data_out[1]:8 0.5
5 data_out[1]:8 data_out[1]:7 2.9375
6 data_out[1]:11 data_out[1]:10 1
7 data_out[1]:10 data_out[1]:9 0.4946429
8 data_out[1]:5 Reciever\/Unit4\/U6:A1 1
9 data_out[1]:4 data_out[1]:3 0.5
10 data_out[1]:3 data_out[1] 1.950893

*END

*D_NET data_out[0] 2.876953 //LENGTH 35.041 LUMPCC 0 DR

*CONN
*I Reciever\/Unit3\/U14:Y O *L 0 *C 13.980 18.236
*I Reciever\/Unit4\/U15:A2 I *L 1.016415 *C 10.180 21.276
*P data_out[0] O *L 0 *C 37.734 24.924
*N data_out[0]:3 *C 15.058 24.924
*N data_out[0]:4 *C 15.044 24.911
*N data_out[0]:5 *C 15.044 20.986
*N data_out[0]:6 *C 15.030 20.972
*N data_out[0]:7 *C 10.180 21.262
*N data_out[0]:8 *C 10.180 20.986
*N data_out[0]:9 *C 10.194 20.972
*N data_out[0]:10 *C 13.980 20.972
*N data_out[0]:11 *C 13.980 20.959
*N data_out[0]:12 *C 13.980 18.250

*CAP
0 Reciever\/Unit3\/U14:Y 0.001
1 Reciever\/Unit4\/U15:A2 0.001
2 data_out[0] 0.9225453
3 data_out[0]:3 0.920173
4 data_out[0]:4 0.1724301
5 data_out[0]:5 0.1724301
6 data_out[0]:6 0.04335984
7 data_out[0]:7 0.01373186
8 data_out[0]:8 0.01516454
9 data_out[0]:9 0.1702015
10 data_out[0]:10 0.2159335
11 data_out[0]:11 0.1152082
12 data_out[0]:12 0.1137755

*RES
0 Reciever\/Unit3\/U14:Y data_out[0]:12 1
1 data_out[0]:5 data_out[0]:4 7.008929
2 data_out[0]:6 data_out[0]:5 0.5
3 data_out[0]:4 data_out[0]:3 0.5
4 data_out[0]:3 data_out[0] 40.49375
5 data_out[0]:11 data_out[0]:10 0.5
6 data_out[0]:10 data_out[0]:9 6.761608
7 data_out[0]:10 data_out[0]:6 1.875893
8 data_out[0]:12 data_out[0]:11 4.837501
9 data_out[0]:8 data_out[0]:7 0.4946429
10 data_out[0]:9 data_out[0]:8 0.5
11 data_out[0]:7 Reciever\/Unit4\/U15:A2 1

*END

*D_NET error_flag[2] 2.467904 //LENGTH 25.247 LUMPCC 0 DR

*CONN
*I Reciever\/Unit4\/U8:Y O *L 0 *C 27.356 15.804
*P error_flag[2] O *L 0 *C 37.734 30.396
*N error_flag[2]:2 *C 27.521 30.396
*N error_flag[2]:3 *C 27.508 30.383
*N error_flag[2]:4 *C 27.508 16.412
*N error_flag[2]:5 *C 27.356 16.412
*N error_flag[2]:6 *C 27.356 15.818

*CAP
0 Reciever\/Unit4\/U8:Y 0.001
1 error_flag[2] 0.4214524
2 error_flag[2]:2 0.4190801
3 error_flag[2]:3 0.7735388
4 error_flag[2]:4 0.7837163
5 error_flag[2]:5 0.0403633
6 error_flag[2]:6 0.02875305

*RES
0 Reciever\/Unit4\/U8:Y error_flag[2]:6 1
1 error_flag[2]:6 error_flag[2]:5 1.061607
2 error_flag[2]:3 error_flag[2]:2 0.5
3 error_flag[2]:2 error_flag[2] 18.23661
4 error_flag[2]:5 error_flag[2]:4 0.2714286
5 error_flag[2]:4 error_flag[2]:3 24.94732

*END

*D_NET error_flag[1] 2.912159 //LENGTH 28.831 LUMPCC 0 DR

*CONN
*I Reciever\/Unit4\/U9:Y O *L 0 *C 24.316 14.284
*P error_flag[1] O *L 0 *C 0.258 10.028
*N error_flag[1]:2 *C 24.316 14.102
*N error_flag[1]:3 *C 1.199 10.028
*N error_flag[1]:4 *C 1.212 10.042
*N error_flag[1]:5 *C 1.212 14.271
*N error_flag[1]:6 *C 1.226 14.284
*N error_flag[1]:7 *C 24.303 14.284
*N error_flag[1]:8 *C 24.316 14.272

*CAP
0 Reciever\/Unit4\/U9:Y 0.001
1 error_flag[1] 0.04139757
2 error_flag[1]:2 0.01180684
3 error_flag[1]:3 0.03902536
4 error_flag[1]:4 0.3035345
5 error_flag[1]:5 0.3035345
6 error_flag[1]:6 1.103085
7 error_flag[1]:7 1.103085
8 error_flag[1]:8 0.005689448

*RES
0 Reciever\/Unit4\/U9:Y error_flag[1]:8 1
1 error_flag[1]:8 error_flag[1]:7 0.5
2 error_flag[1]:8 error_flag[1]:2 0.2825
3 error_flag[1]:7 error_flag[1]:6 41.20893
4 error_flag[1]:5 error_flag[1]:4 7.551786
5 error_flag[1]:6 error_flag[1]:5 0.5
6 error_flag[1]:4 error_flag[1]:3 0.5
7 error_flag[1]:3 error_flag[1] 1.679464

*END

*D_NET error_flag[0] 1.395167 //LENGTH 16.735 LUMPCC 0 DR

*CONN
*I Reciever\/Unit4\/U10:Y O *L 0 *C 27.204 18.084
*P error_flag[0] O *L 0 *C 37.734 23.404
*N error_flag[0]:2 *C 34.956 23.404
*N error_flag[0]:3 *C 34.956 23.708
*N error_flag[0]:4 *C 27.218 23.708
*N error_flag[0]:5 *C 27.204 23.695
*N error_flag[0]:6 *C 27.204 18.098

*CAP
0 Reciever\/Unit4\/U10:Y 0.001
1 error_flag[0] 0.1144768
2 error_flag[0]:2 0.1278995
3 error_flag[0]:3 0.2960469
4 error_flag[0]:4 0.280252
5 error_flag[0]:5 0.2884623
6 error_flag[0]:6 0.2870296

*RES
0 Reciever\/Unit4\/U10:Y error_flag[0]:6 1
1 error_flag[0]:6 error_flag[0]:5 9.994644
2 error_flag[0]:5 error_flag[0]:4 0.5
3 error_flag[0]:4 error_flag[0]:3 13.81875
4 error_flag[0]:3 error_flag[0]:2 0.5428572
5 error_flag[0]:2 error_flag[0] 4.960715

*END

*D_NET Transmitter/baud_clk_w 1.885551 //LENGTH 23.551 LUMPCC 0 DR

*CONN
*I Transmitter\/Unit1\/baud_clk_reg:Q O *L 0 *C 35.868 19.756
*I Transmitter\/Unit3\/next_state_reg:CLK I *L 0.668019 *C 33.892 17.172
*I Transmitter\/Unit3\/stop_count_reg[3]:CLK I *L 0.668019 *C 28.268 16.868
*I Transmitter\/Unit3\/stop_count_reg[2]:CLK I *L 0.668019 *C 27.660 13.524
*I Transmitter\/Unit3\/stop_count_reg[0]:CLK I *L 0.668019 *C 31.460 10.484
*I Transmitter\/Unit3\/stop_count_reg[1]:CLK I *L 0.668019 *C 31.612 10.180
*I Transmitter\/Unit1\/U4:A1 I *L 1.174364 *C 31.308 18.084
*N Transmitter/baud_clk_w:7 *C 31.308 18.070
*N Transmitter/baud_clk_w:8 *C 31.612 10.194
*N Transmitter/baud_clk_w:9 *C 31.612 10.636
*N Transmitter/baud_clk_w:10 *C 31.460 10.498
*N Transmitter/baud_clk_w:11 *C 31.460 10.636
*N Transmitter/baud_clk_w:12 *C 31.460 16.108
*N Transmitter/baud_clk_w:13 *C 27.660 13.538
*N Transmitter/baud_clk_w:14 *C 27.660 16.095
*N Transmitter/baud_clk_w:15 *C 27.674 16.108
*N Transmitter/baud_clk_w:16 *C 28.268 16.855
*N Transmitter/baud_clk_w:17 *C 28.268 16.122
*N Transmitter/baud_clk_w:18 *C 28.268 16.108
*N Transmitter/baud_clk_w:19 *C 31.295 16.108
*N Transmitter/baud_clk_w:20 *C 31.308 16.108
*N Transmitter/baud_clk_w:21 *C 31.308 17.324
*N Transmitter/baud_clk_w:22 *C 31.322 17.324
*N Transmitter/baud_clk_w:23 *C 33.892 17.172
*N Transmitter/baud_clk_w:24 *C 33.892 17.312
*N Transmitter/baud_clk_w:25 *C 33.892 17.324
*N Transmitter/baud_clk_w:26 *C 35.855 17.324
*N Transmitter/baud_clk_w:27 *C 35.868 17.338
*N Transmitter/baud_clk_w:28 *C 35.868 19.742

*CAP
0 Transmitter\/Unit1\/baud_clk_reg:Q 0.001
1 Transmitter\/Unit3\/next_state_reg:CLK 0.001
2 Transmitter\/Unit3\/stop_count_reg[3]:CLK 0.001
3 Transmitter\/Unit3\/stop_count_reg[2]:CLK 0.001
4 Transmitter\/Unit3\/stop_count_reg[0]:CLK 0.001
5 Transmitter\/Unit3\/stop_count_reg[1]:CLK 0.001
6 Transmitter\/Unit1\/U4:A1 0.001
7 Transmitter/baud_clk_w:7 0.03545864
8 Transmitter/baud_clk_w:8 0.02666318
9 Transmitter/baud_clk_w:9 0.03925556
10 Transmitter/baud_clk_w:10 0.007233972
11 Transmitter/baud_clk_w:11 0.290735
12 Transmitter/baud_clk_w:12 0.2792726
13 Transmitter/baud_clk_w:13 0.1149256
14 Transmitter/baud_clk_w:14 0.1163583
15 Transmitter/baud_clk_w:15 0.01950705
16 Transmitter/baud_clk_w:16 0.03139374
17 Transmitter/baud_clk_w:17 0.03282642
18 Transmitter/baud_clk_w:18 0.1219407
19 Transmitter/baud_clk_w:19 0.1000614
20 Transmitter/baud_clk_w:20 0.06386338
21 Transmitter/baud_clk_w:21 0.09476304
22 Transmitter/baud_clk_w:22 0.08269359
23 Transmitter/baud_clk_w:23 0.006632383
24 Transmitter/baud_clk_w:24 0.008065061
25 Transmitter/baud_clk_w:25 0.1477599
26 Transmitter/baud_clk_w:26 0.06269405
27 Transmitter/baud_clk_w:27 0.0989398
28 Transmitter/baud_clk_w:28 0.09750712

*RES
0 Transmitter\/Unit1\/baud_clk_reg:Q Transmitter/baud_clk_w:28 1
1 Transmitter/baud_clk_w:27 Transmitter/baud_clk_w:26 0.5
2 Transmitter/baud_clk_w:26 Transmitter/baud_clk_w:25 3.504464
3 Transmitter/baud_clk_w:28 Transmitter/baud_clk_w:27 4.294643
4 Transmitter/baud_clk_w:24 Transmitter/baud_clk_w:23 0.2325
5 Transmitter/baud_clk_w:25 Transmitter/baud_clk_w:24 0.5
6 Transmitter/baud_clk_w:25 Transmitter/baud_clk_w:22 4.590179
7 Transmitter/baud_clk_w:23 Transmitter\/Unit3\/next_state_reg:CLK 1
8 Transmitter/baud_clk_w:8 Transmitter\/Unit3\/stop_count_reg[1]:CLK 1
9 Transmitter/baud_clk_w:10 Transmitter\/Unit3\/stop_count_reg[0]:CLK 1
10 Transmitter/baud_clk_w:7 Transmitter\/Unit1\/U4:A1 1
11 Transmitter/baud_clk_w:21 Transmitter/baud_clk_w:20 2.171429
12 Transmitter/baud_clk_w:21 Transmitter/baud_clk_w:7 1.333036
13 Transmitter/baud_clk_w:22 Transmitter/baud_clk_w:21 0.5
14 Transmitter/baud_clk_w:20 Transmitter/baud_clk_w:19 0.5
15 Transmitter/baud_clk_w:20 Transmitter/baud_clk_w:12 0.2714286
16 Transmitter/baud_clk_w:19 Transmitter/baud_clk_w:18 5.404464
17 Transmitter/baud_clk_w:17 Transmitter/baud_clk_w:16 1.308929
18 Transmitter/baud_clk_w:18 Transmitter/baud_clk_w:17 0.5
19 Transmitter/baud_clk_w:18 Transmitter/baud_clk_w:15 1.061607
20 Transmitter/baud_clk_w:16 Transmitter\/Unit3\/stop_count_reg[3]:CLK 1
21 Transmitter/baud_clk_w:14 Transmitter/baud_clk_w:13 4.566072
22 Transmitter/baud_clk_w:15 Transmitter/baud_clk_w:14 0.5
23 Transmitter/baud_clk_w:13 Transmitter\/Unit3\/stop_count_reg[2]:CLK 1
24 Transmitter/baud_clk_w:12 Transmitter/baud_clk_w:11 9.771429
25 Transmitter/baud_clk_w:11 Transmitter/baud_clk_w:10 0.2473214
26 Transmitter/baud_clk_w:11 Transmitter/baud_clk_w:9 0.2714286
27 Transmitter/baud_clk_w:9 Transmitter/baud_clk_w:8 0.7901786

*END

*D_NET Reciever/Unit2/HFSNET_3 2.073935 //LENGTH 24.308 LUMPCC 0 DR

*CONN
*I Reciever\/Unit2\/HFSINV_436_741:Y O *L 0 *C 4.556 20.820
*I Reciever\/Unit2\/U65:A2 I *L 0.684351 *C 15.679 9.268
*I Reciever\/Unit2\/U94:A2 I *L 0.55404 *C 16.868 10.180
*N Reciever/Unit2/HFSNET_3:3 *C 16.867 10.180
*N Reciever/Unit2/HFSNET_3:4 *C 15.652 9.307
*N Reciever/Unit2/HFSNET_3:5 *C 15.652 10.180
*N Reciever/Unit2/HFSNET_3:6 *C 15.652 20.655
*N Reciever/Unit2/HFSNET_3:7 *C 15.639 20.668
*N Reciever/Unit2/HFSNET_3:8 *C 4.570 20.668
*N Reciever/Unit2/HFSNET_3:9 *C 4.556 20.668
*N Reciever/Unit2/HFSNET_3:10 *C 4.556 20.808

*CAP
0 Reciever\/Unit2\/HFSINV_436_741:Y 0.001
1 Reciever\/Unit2\/U65:A2 0.001
2 Reciever\/Unit2\/U94:A2 0.001
3 Reciever/Unit2/HFSNET_3:3 0.05078089
4 Reciever/Unit2/HFSNET_3:4 0.03421114
5 Reciever/Unit2/HFSNET_3:5 0.5510202
6 Reciever/Unit2/HFSNET_3:6 0.4535291
7 Reciever/Unit2/HFSNET_3:7 0.4822804
8 Reciever/Unit2/HFSNET_3:8 0.4822804
9 Reciever/Unit2/HFSNET_3:9 0.009102844
10 Reciever/Unit2/HFSNET_3:10 0.007729885

*RES
0 Reciever\/Unit2\/HFSINV_436_741:Y Reciever/Unit2/HFSNET_3:10 1
1 Reciever/Unit2/HFSNET_3:3 Reciever\/Unit2\/U94:A2 1
2 Reciever/Unit2/HFSNET_3:4 Reciever\/Unit2\/U65:A2 0.5
3 Reciever/Unit2/HFSNET_3:6 Reciever/Unit2/HFSNET_3:5 18.70446
4 Reciever/Unit2/HFSNET_3:7 Reciever/Unit2/HFSNET_3:6 0.5
5 Reciever/Unit2/HFSNET_3:9 Reciever/Unit2/HFSNET_3:8 0.5
6 Reciever/Unit2/HFSNET_3:8 Reciever/Unit2/HFSNET_3:7 19.76607
7 Reciever/Unit2/HFSNET_3:10 Reciever/Unit2/HFSNET_3:9 0.2325
8 Reciever/Unit2/HFSNET_3:5 Reciever/Unit2/HFSNET_3:4 1.558928
9 Reciever/Unit2/HFSNET_3:5 Reciever/Unit2/HFSNET_3:3 2.169643

*END

*D_NET HFSNET_1 4.830887 //LENGTH 57.312 LUMPCC 0 DR

*CONN
*I HFSBUF_341_742:Y O *L 0 *C 5.620 21.428
*I Reciever\/Unit1\/clock_ticks_reg[3]:RSTB I *L 0.892564 *C 4.404 25.532
*I Reciever\/Unit1\/clock_ticks_reg[4]:RSTB I *L 0.892564 *C 4.556 28.876
*I Reciever\/Unit1\/clock_ticks_reg[6]:RSTB I *L 0.892564 *C 4.100 32.220
*I Reciever\/Unit1\/clock_ticks_reg[5]:RSTB I *L 0.892564 *C 4.100 31.916
*I Reciever\/Unit1\/clock_ticks_reg[8]:RSTB I *L 0.892564 *C 4.252 35.564
*I Reciever\/Unit1\/clock_ticks_reg[2]:RSTB I *L 0.892564 *C 4.708 22.188
*I Reciever\/Unit1\/clock_ticks_reg[1]:RSTB I *L 0.892564 *C 9.420 22.188
*I Reciever\/Unit1\/clock_ticks_reg[0]:RSTB I *L 0.892564 *C 14.892 22.188
*I Reciever\/Unit1\/baud_clk_reg:RSTB I *L 0.892564 *C 15.804 21.884
*I Transmitter\/Unit1\/clock_ticks_reg[7]:RSTB I *L 0.892564 *C 19.300 22.188
*I Transmitter\/Unit1\/clock_ticks_reg[5]:RSTB I *L 0.892564 *C 19.300 25.532
*I Transmitter\/Unit1\/clock_ticks_reg[6]:RSTB I *L 0.892564 *C 20.060 31.916
*I Reciever\/Unit1\/clock_ticks_reg[9]:RSTB I *L 0.892564 *C 16.412 35.260
*I Reciever\/Unit1\/clock_ticks_reg[7]:RSTB I *L 0.892564 *C 15.956 35.564
*I Transmitter\/Unit1\/clock_ticks_reg[4]:RSTB I *L 0.892564 *C 20.668 35.260
*I Transmitter\/Unit1\/clock_ticks_reg[3]:RSTB I *L 0.892564 *C 24.924 35.260
*N HFSNET_1:17 *C 24.924 35.078
*N HFSNET_1:18 *C 24.924 35.248
*N HFSNET_1:19 *C 24.911 35.260
*N HFSNET_1:20 *C 20.668 35.078
*N HFSNET_1:21 *C 20.668 35.248
*N HFSNET_1:22 *C 20.668 35.260
*N HFSNET_1:23 *C 15.956 35.550
*N HFSNET_1:24 *C 15.956 35.260
*N HFSNET_1:25 *C 16.411 35.260
*N HFSNET_1:26 *C 16.425 35.260
*N HFSNET_1:27 *C 19.300 35.260
*N HFSNET_1:28 *C 19.300 35.247
*N HFSNET_1:29 *C 20.060 31.734
*N HFSNET_1:30 *C 20.060 31.904
*N HFSNET_1:31 *C 20.047 31.916
*N HFSNET_1:32 *C 19.314 31.916
*N HFSNET_1:33 *C 19.300 31.916
*N HFSNET_1:34 *C 19.300 25.532
*N HFSNET_1:35 *C 19.300 22.201
*N HFSNET_1:36 *C 19.287 22.188
*N HFSNET_1:37 *C 15.804 21.898
*N HFSNET_1:38 *C 15.804 22.175
*N HFSNET_1:39 *C 15.804 22.188
*N HFSNET_1:40 *C 14.892 22.006
*N HFSNET_1:41 *C 14.892 22.175
*N HFSNET_1:42 *C 14.892 22.188
*N HFSNET_1:43 *C 14.892 22.492
*N HFSNET_1:44 *C 9.420 22.201
*N HFSNET_1:45 *C 9.420 22.479
*N HFSNET_1:46 *C 9.420 22.492
*N HFSNET_1:47 *C 4.708 22.201
*N HFSNET_1:48 *C 4.708 22.479
*N HFSNET_1:49 *C 4.721 22.492
*N HFSNET_1:50 *C 4.252 35.550
*N HFSNET_1:51 *C 4.100 31.930
*N HFSNET_1:52 *C 4.100 32.220
*N HFSNET_1:53 *C 4.252 32.220
*N HFSNET_1:54 *C 4.556 32.220
*N HFSNET_1:55 *C 4.556 28.876
*N HFSNET_1:56 *C 4.405 25.532
*N HFSNET_1:57 *C 4.556 25.546
*N HFSNET_1:58 *C 4.570 25.532
*N HFSNET_1:59 *C 5.151 25.532
*N HFSNET_1:60 *C 5.164 25.518
*N HFSNET_1:61 *C 5.164 22.506
*N HFSNET_1:62 *C 5.164 22.492
*N HFSNET_1:63 *C 5.620 22.492
*N HFSNET_1:64 *C 5.620 22.479
*N HFSNET_1:65 *C 5.620 21.442

*CAP
0 HFSBUF_341_742:Y 0.001
1 Reciever\/Unit1\/clock_ticks_reg[3]:RSTB 0.001
2 Reciever\/Unit1\/clock_ticks_reg[4]:RSTB 0.001
3 Reciever\/Unit1\/clock_ticks_reg[6]:RSTB 0.001
4 Reciever\/Unit1\/clock_ticks_reg[5]:RSTB 0.001
5 Reciever\/Unit1\/clock_ticks_reg[8]:RSTB 0.001
6 Reciever\/Unit1\/clock_ticks_reg[2]:RSTB 0.001
7 Reciever\/Unit1\/clock_ticks_reg[1]:RSTB 0.001
8 Reciever\/Unit1\/clock_ticks_reg[0]:RSTB 0.001
9 Reciever\/Unit1\/baud_clk_reg:RSTB 0.001
10 Transmitter\/Unit1\/clock_ticks_reg[7]:RSTB 0.001
11 Transmitter\/Unit1\/clock_ticks_reg[5]:RSTB 0.001
12 Transmitter\/Unit1\/clock_ticks_reg[6]:RSTB 0.001
13 Reciever\/Unit1\/clock_ticks_reg[9]:RSTB 0.001
14 Reciever\/Unit1\/clock_ticks_reg[7]:RSTB 0.001
15 Transmitter\/Unit1\/clock_ticks_reg[4]:RSTB 0.001
16 Transmitter\/Unit1\/clock_ticks_reg[3]:RSTB 0.001
17 HFSNET_1:17 0.01310175
18 HFSNET_1:18 0.006924636
19 HFSNET_1:19 0.1784289
20 HFSNET_1:20 0.01624287
21 HFSNET_1:21 0.01006576
22 HFSNET_1:22 0.2281191
23 HFSNET_1:23 0.01230556
24 HFSNET_1:24 0.03785674
25 HFSNET_1:25 0.01556917
26 HFSNET_1:26 0.1068759
27 HFSNET_1:27 0.1565662
28 HFSNET_1:28 0.186526
29 HFSNET_1:29 0.01797146
30 HFSNET_1:30 0.01179435
31 HFSNET_1:31 0.03003259
32 HFSNET_1:32 0.03003259
33 HFSNET_1:33 0.5641723
34 HFSNET_1:34 0.5293945
35 HFSNET_1:35 0.1493759
36 HFSNET_1:36 0.1149846
37 HFSNET_1:37 0.0134049
38 HFSNET_1:38 0.01483758
39 HFSNET_1:39 0.1513005
40 HFSNET_1:40 0.01765548
41 HFSNET_1:41 0.01147836
42 HFSNET_1:42 0.04633322
43 HFSNET_1:43 0.2068918
44 HFSNET_1:44 0.01359713
45 HFSNET_1:45 0.01502981
46 HFSNET_1:46 0.3322965
47 HFSNET_1:47 0.01516794
48 HFSNET_1:48 0.01660062
49 HFSNET_1:49 0.02002322
50 HFSNET_1:50 0.1299262
51 HFSNET_1:51 0.01375199
52 HFSNET_1:52 0.0207824
53 HFSNET_1:53 0.1535862
54 HFSNET_1:54 0.1497795
55 HFSNET_1:55 0.2734798
56 HFSNET_1:56 0.004479933
57 HFSNET_1:57 0.1462424
58 HFSNET_1:58 0.02301555
59 HFSNET_1:59 0.02301555
60 HFSNET_1:60 0.1244864
61 HFSNET_1:61 0.1244864
62 HFSNET_1:62 0.03916441
63 HFSNET_1:63 0.1569355
64 HFSNET_1:64 0.07061457
65 HFSNET_1:65 0.06918189

*RES
0 HFSBUF_341_742:Y HFSNET_1:65 1
1 HFSNET_1:18 Transmitter\/Unit1\/clock_ticks_reg[3]:RSTB 1
2 HFSNET_1:18 HFSNET_1:17 0.2825
3 HFSNET_1:19 HFSNET_1:18 0.5
4 HFSNET_1:21 Transmitter\/Unit1\/clock_ticks_reg[4]:RSTB 1
5 HFSNET_1:21 HFSNET_1:20 0.2825
6 HFSNET_1:22 HFSNET_1:21 0.5
7 HFSNET_1:22 HFSNET_1:19 7.575893
8 HFSNET_1:28 HFSNET_1:27 0.5
9 HFSNET_1:27 HFSNET_1:26 5.133036
10 HFSNET_1:27 HFSNET_1:22 2.442857
11 HFSNET_1:33 HFSNET_1:32 0.5
12 HFSNET_1:33 HFSNET_1:28 5.947322
13 HFSNET_1:32 HFSNET_1:31 1.308929
14 HFSNET_1:30 Transmitter\/Unit1\/clock_ticks_reg[6]:RSTB 1
15 HFSNET_1:30 HFSNET_1:29 0.2825
16 HFSNET_1:31 HFSNET_1:30 0.5
17 HFSNET_1:34 Transmitter\/Unit1\/clock_ticks_reg[5]:RSTB 1
18 HFSNET_1:34 HFSNET_1:33 11.4
19 HFSNET_1:35 Transmitter\/Unit1\/clock_ticks_reg[7]:RSTB 1
20 HFSNET_1:35 HFSNET_1:34 5.947322
21 HFSNET_1:25 Reciever\/Unit1\/clock_ticks_reg[9]:RSTB 1
22 HFSNET_1:25 HFSNET_1:24 0.8125001
23 HFSNET_1:26 HFSNET_1:25 0.5
24 HFSNET_1:23 Reciever\/Unit1\/clock_ticks_reg[7]:RSTB 1
25 HFSNET_1:36 HFSNET_1:35 0.5
26 HFSNET_1:38 HFSNET_1:37 0.4946429
27 HFSNET_1:39 HFSNET_1:38 0.5
28 HFSNET_1:39 HFSNET_1:36 6.21875
29 HFSNET_1:37 Reciever\/Unit1\/baud_clk_reg:RSTB 1
30 HFSNET_1:41 Reciever\/Unit1\/clock_ticks_reg[0]:RSTB 1
31 HFSNET_1:41 HFSNET_1:40 0.2825
32 HFSNET_1:42 HFSNET_1:41 0.5
33 HFSNET_1:42 HFSNET_1:39 1.628571
34 HFSNET_1:45 HFSNET_1:44 0.4946429
35 HFSNET_1:46 HFSNET_1:45 0.5
36 HFSNET_1:46 HFSNET_1:43 9.771429
37 HFSNET_1:44 Reciever\/Unit1\/clock_ticks_reg[1]:RSTB 1
38 HFSNET_1:64 HFSNET_1:63 0.5
39 HFSNET_1:63 HFSNET_1:62 0.8142858
40 HFSNET_1:63 HFSNET_1:46 6.785715
41 HFSNET_1:65 HFSNET_1:64 1.851786
42 HFSNET_1:48 HFSNET_1:47 0.4946429
43 HFSNET_1:49 HFSNET_1:48 0.5
44 HFSNET_1:47 Reciever\/Unit1\/clock_ticks_reg[2]:RSTB 1
45 HFSNET_1:55 Reciever\/Unit1\/clock_ticks_reg[4]:RSTB 1
46 HFSNET_1:55 HFSNET_1:54 5.971429
47 HFSNET_1:61 HFSNET_1:60 5.380358
48 HFSNET_1:62 HFSNET_1:61 0.5
49 HFSNET_1:62 HFSNET_1:49 0.7901787
50 HFSNET_1:60 HFSNET_1:59 0.5
51 HFSNET_1:59 HFSNET_1:58 1.0375
52 HFSNET_1:57 HFSNET_1:56 0.2696429
53 HFSNET_1:57 HFSNET_1:55 5.947322
54 HFSNET_1:58 HFSNET_1:57 0.5
55 HFSNET_1:56 Reciever\/Unit1\/clock_ticks_reg[3]:RSTB 1
56 HFSNET_1:50 Reciever\/Unit1\/clock_ticks_reg[8]:RSTB 1
57 HFSNET_1:52 Reciever\/Unit1\/clock_ticks_reg[6]:RSTB 1
58 HFSNET_1:52 HFSNET_1:51 0.5187501
59 HFSNET_1:51 Reciever\/Unit1\/clock_ticks_reg[5]:RSTB 1
60 HFSNET_1:53 HFSNET_1:52 0.2714286
61 HFSNET_1:53 HFSNET_1:50 5.947322
62 HFSNET_1:54 HFSNET_1:53 0.5428572
63 HFSNET_1:24 HFSNET_1:23 0.51875
64 HFSNET_1:43 HFSNET_1:42 0.5428572

*END

*D_NET Transmitter/Unit1/N18 0.2761572 //LENGTH 3.158 LUMPCC 0 DR

*CONN
*I Transmitter\/Unit1\/add_62\/U1:Y O *L 0 *C 37.236 34.348
*I Transmitter\/Unit1\/U31:A1 I *L 0.592288 *C 36.020 32.980
*N Transmitter/Unit1/N18:2 *C 37.236 34.166
*N Transmitter/Unit1/N18:3 *C 36.020 32.994
*N Transmitter/Unit1/N18:4 *C 36.020 33.740
*N Transmitter/Unit1/N18:5 *C 36.172 33.740
*N Transmitter/Unit1/N18:6 *C 36.172 34.334
*N Transmitter/Unit1/N18:7 *C 36.186 34.348
*N Transmitter/Unit1/N18:8 *C 37.223 34.348
*N Transmitter/Unit1/N18:9 *C 37.236 34.336

*CAP
0 Transmitter\/Unit1\/add_62\/U1:Y 0.001
1 Transmitter\/Unit1\/U31:A1 0.001
2 Transmitter/Unit1/N18:2 0.01510054
3 Transmitter/Unit1/N18:3 0.03745769
4 Transmitter/Unit1/N18:4 0.04941027
5 Transmitter/Unit1/N18:5 0.04292885
6 Transmitter/Unit1/N18:6 0.03240894
7 Transmitter/Unit1/N18:7 0.04393388
8 Transmitter/Unit1/N18:8 0.04393388
9 Transmitter/Unit1/N18:9 0.008983147

*RES
0 Transmitter\/Unit1\/add_62\/U1:Y Transmitter/Unit1/N18:9 1
1 Transmitter/Unit1/N18:3 Transmitter\/Unit1\/U31:A1 1
2 Transmitter/Unit1/N18:6 Transmitter/Unit1/N18:5 1.061607
3 Transmitter/Unit1/N18:7 Transmitter/Unit1/N18:6 0.5
4 Transmitter/Unit1/N18:9 Transmitter/Unit1/N18:8 0.5
5 Transmitter/Unit1/N18:9 Transmitter/Unit1/N18:2 0.2825
6 Transmitter/Unit1/N18:8 Transmitter/Unit1/N18:7 1.851786
7 Transmitter/Unit1/N18:4 Transmitter/Unit1/N18:3 1.333036
8 Transmitter/Unit1/N18:5 Transmitter/Unit1/N18:4 0.2714286

*END

*D_NET Transmitter/Unit1/N19 0.1855617 //LENGTH 2.316 LUMPCC 0 DR

*CONN
*I Transmitter\/Unit1\/add_62\/U1_1_1:SO O *L 0 *C 35.412 36.324
*I Transmitter\/Unit1\/U30:A1 I *L 0.592288 *C 37.084 36.324
*N Transmitter/Unit1/N19:2 *C 37.084 36.312
*N Transmitter/Unit1/N19:3 *C 37.084 36.172
*N Transmitter/Unit1/N19:4 *C 37.071 36.172
*N Transmitter/Unit1/N19:5 *C 35.425 36.172
*N Transmitter/Unit1/N19:6 *C 35.412 36.172
*N Transmitter/Unit1/N19:7 *C 35.412 36.312

*CAP
0 Transmitter\/Unit1\/add_62\/U1_1_1:SO 0.001
1 Transmitter\/Unit1\/U30:A1 0.001
2 Transmitter/Unit1/N19:2 0.009470537
3 Transmitter/Unit1/N19:3 0.01090322
4 Transmitter/Unit1/N19:4 0.07330967
5 Transmitter/Unit1/N19:5 0.07330967
6 Transmitter/Unit1/N19:6 0.009000622
7 Transmitter/Unit1/N19:7 0.007567943

*RES
0 Transmitter\/Unit1\/add_62\/U1_1_1:SO Transmitter/Unit1/N19:7 1
1 Transmitter/Unit1/N19:2 Transmitter\/Unit1\/U30:A1 1
2 Transmitter/Unit1/N19:3 Transmitter/Unit1/N19:2 0.2325
3 Transmitter/Unit1/N19:4 Transmitter/Unit1/N19:3 0.5
4 Transmitter/Unit1/N19:6 Transmitter/Unit1/N19:5 0.5
5 Transmitter/Unit1/N19:5 Transmitter/Unit1/N19:4 2.9375
6 Transmitter/Unit1/N19:7 Transmitter/Unit1/N19:6 0.2325

*END

*D_NET Transmitter/Unit1/N20 0.362469 //LENGTH 3.718 LUMPCC 0 DR

*CONN
*I Transmitter\/Unit1\/add_62\/U1_1_2:SO O *L 0 *C 26.876 36.269
*I Transmitter\/Unit1\/U29:A1 I *L 0.592288 *C 27.052 32.980
*N Transmitter/Unit1/N20:2 *C 27.052 32.994
*N Transmitter/Unit1/N20:3 *C 27.052 33.436
*N Transmitter/Unit1/N20:4 *C 26.900 33.436
*N Transmitter/Unit1/N20:5 *C 26.900 36.311

*CAP
0 Transmitter\/Unit1\/add_62\/U1_1_2:SO 0.001
1 Transmitter\/Unit1\/U29:A1 0.001
2 Transmitter/Unit1/N20:2 0.0251674
3 Transmitter/Unit1/N20:3 0.03745472
4 Transmitter/Unit1/N20:4 0.1550671
5 Transmitter/Unit1/N20:5 0.1427798

*RES
0 Transmitter\/Unit1\/add_62\/U1_1_2:SO Transmitter/Unit1/N20:5 1
1 Transmitter/Unit1/N20:2 Transmitter\/Unit1\/U29:A1 1
2 Transmitter/Unit1/N20:5 Transmitter/Unit1/N20:4 5.133036
3 Transmitter/Unit1/N20:4 Transmitter/Unit1/N20:3 0.2714286
4 Transmitter/Unit1/N20:3 Transmitter/Unit1/N20:2 0.7901786

*END

*D_NET Transmitter/Unit1/N21 0.4537774 //LENGTH 5.042 LUMPCC 0 DR

*CONN
*I Transmitter\/Unit1\/add_62\/U1_1_3:SO O *L 0 *C 24.012 35.564
*I Transmitter\/Unit1\/U28:A1 I *L 0.592288 *C 21.884 32.980
*N Transmitter/Unit1/N21:2 *C 21.884 32.994
*N Transmitter/Unit1/N21:3 *C 21.884 34.639
*N Transmitter/Unit1/N21:4 *C 21.898 34.652
*N Transmitter/Unit1/N21:5 *C 23.998 34.652
*N Transmitter/Unit1/N21:6 *C 24.012 34.666
*N Transmitter/Unit1/N21:7 *C 24.012 35.550

*CAP
0 Transmitter\/Unit1\/add_62\/U1_1_3:SO 0.001
1 Transmitter\/Unit1\/U28:A1 0.001
2 Transmitter/Unit1/N21:2 0.07825196
3 Transmitter/Unit1/N21:3 0.07968464
4 Transmitter/Unit1/N21:4 0.1036564
5 Transmitter/Unit1/N21:5 0.1036564
6 Transmitter/Unit1/N21:6 0.04328857
7 Transmitter/Unit1/N21:7 0.0432395

*RES
0 Transmitter\/Unit1\/add_62\/U1_1_3:SO Transmitter/Unit1/N21:7 1
1 Transmitter/Unit1/N21:2 Transmitter\/Unit1\/U28:A1 1
2 Transmitter/Unit1/N21:3 Transmitter/Unit1/N21:2 2.9375
3 Transmitter/Unit1/N21:4 Transmitter/Unit1/N21:3 0.5
4 Transmitter/Unit1/N21:6 Transmitter/Unit1/N21:5 0.5
5 Transmitter/Unit1/N21:5 Transmitter/Unit1/N21:4 3.751786
6 Transmitter/Unit1/N21:7 Transmitter/Unit1/N21:6 1.580357

*END

*D_NET Transmitter/Unit1/N22 0.4281443 //LENGTH 4.326 LUMPCC 0 DR

*CONN
*I Transmitter\/Unit1\/add_62\/U1_1_4:SO O *L 0 *C 20.820 35.564
*I Transmitter\/Unit1\/U27:A1 I *L 0.592288 *C 19.604 32.980
*N Transmitter/Unit1/N22:2 *C 19.604 32.994
*N Transmitter/Unit1/N22:3 *C 19.604 35.716
*N Transmitter/Unit1/N22:4 *C 20.820 35.716
*N Transmitter/Unit1/N22:5 *C 20.820 35.578

*CAP
0 Transmitter\/Unit1\/add_62\/U1_1_4:SO 0.001
1 Transmitter\/Unit1\/U27:A1 0.001
2 Transmitter/Unit1/N22:2 0.1508165
3 Transmitter/Unit1/N22:3 0.2037849
4 Transmitter/Unit1/N22:4 0.06156389
5 Transmitter/Unit1/N22:5 0.0099791

*RES
0 Transmitter\/Unit1\/add_62\/U1_1_4:SO Transmitter/Unit1/N22:5 1
1 Transmitter/Unit1/N22:2 Transmitter\/Unit1\/U27:A1 1
2 Transmitter/Unit1/N22:5 Transmitter/Unit1/N22:4 0.2473214
3 Transmitter/Unit1/N22:3 Transmitter/Unit1/N22:2 4.861607
4 Transmitter/Unit1/N22:4 Transmitter/Unit1/N22:3 2.171429

*END

*D_NET Transmitter/Unit1/N23 0.291767 //LENGTH 3.527 LUMPCC 0 DR

*CONN
*I Transmitter\/Unit1\/add_62\/U1_1_5:SO O *L 0 *C 18.692 27.812
*I Transmitter\/Unit1\/U26:A1 I *L 0.592288 *C 17.020 26.292
*N Transmitter/Unit1/N23:2 *C 17.020 26.306
*N Transmitter/Unit1/N23:3 *C 17.020 27.646
*N Transmitter/Unit1/N23:4 *C 17.034 27.660
*N Transmitter/Unit1/N23:5 *C 18.678 27.660
*N Transmitter/Unit1/N23:6 *C 18.692 27.660
*N Transmitter/Unit1/N23:7 *C 18.692 27.800

*CAP
0 Transmitter\/Unit1\/add_62\/U1_1_5:SO 0.001
1 Transmitter\/Unit1\/U26:A1 0.001
2 Transmitter/Unit1/N23:2 0.06129687
3 Transmitter/Unit1/N23:3 0.06272954
4 Transmitter/Unit1/N23:4 0.07304871
5 Transmitter/Unit1/N23:5 0.07304871
6 Transmitter/Unit1/N23:6 0.01053793
7 Transmitter/Unit1/N23:7 0.009105252

*RES
0 Transmitter\/Unit1\/add_62\/U1_1_5:SO Transmitter/Unit1/N23:7 1
1 Transmitter/Unit1/N23:2 Transmitter\/Unit1\/U26:A1 1
2 Transmitter/Unit1/N23:3 Transmitter/Unit1/N23:2 2.394643
3 Transmitter/Unit1/N23:4 Transmitter/Unit1/N23:3 0.5
4 Transmitter/Unit1/N23:6 Transmitter/Unit1/N23:5 0.5
5 Transmitter/Unit1/N23:5 Transmitter/Unit1/N23:4 2.9375
6 Transmitter/Unit1/N23:7 Transmitter/Unit1/N23:6 0.2325

*END

*D_NET Transmitter/Unit1/N24 0.127241 //LENGTH 1.556 LUMPCC 0 DR

*CONN
*I Transmitter\/Unit1\/add_62\/U1_1_6:SO O *L 0 *C 18.996 29.636
*I Transmitter\/Unit1\/U25:A1 I *L 0.592288 *C 18.084 29.636
*N Transmitter/Unit1/N24:2 *C 18.084 29.636
*N Transmitter/Unit1/N24:3 *C 18.084 29.776
*N Transmitter/Unit1/N24:4 *C 18.098 29.788
*N Transmitter/Unit1/N24:5 *C 18.983 29.788
*N Transmitter/Unit1/N24:6 *C 18.996 29.776
*N Transmitter/Unit1/N24:7 *C 18.996 29.636

*CAP
0 Transmitter\/Unit1\/add_62\/U1_1_6:SO 0.001
1 Transmitter\/Unit1\/U25:A1 0.001
2 Transmitter/Unit1/N24:2 0.009133599
3 Transmitter/Unit1/N24:3 0.01056628
4 Transmitter/Unit1/N24:4 0.04151129
5 Transmitter/Unit1/N24:5 0.04151129
6 Transmitter/Unit1/N24:6 0.01197562
7 Transmitter/Unit1/N24:7 0.01054294

*RES
0 Transmitter\/Unit1\/add_62\/U1_1_6:SO Transmitter/Unit1/N24:7 1
1 Transmitter/Unit1/N24:2 Transmitter\/Unit1\/U25:A1 1
2 Transmitter/Unit1/N24:3 Transmitter/Unit1/N24:2 0.2325
3 Transmitter/Unit1/N24:4 Transmitter/Unit1/N24:3 0.5
4 Transmitter/Unit1/N24:6 Transmitter/Unit1/N24:5 0.5
5 Transmitter/Unit1/N24:5 Transmitter/Unit1/N24:4 1.580357
6 Transmitter/Unit1/N24:7 Transmitter/Unit1/N24:6 0.2325

*END

*D_NET Transmitter/Unit1/N25 0.178475 //LENGTH 2.316 LUMPCC 0 DR

*CONN
*I Transmitter\/Unit1\/add_62\/U1_1_7:SO O *L 0 *C 21.732 24.468
*I Transmitter\/Unit1\/U24:A1 I *L 0.592288 *C 20.060 24.468
*N Transmitter/Unit1/N25:2 *C 20.060 24.456
*N Transmitter/Unit1/N25:3 *C 20.060 24.316
*N Transmitter/Unit1/N25:4 *C 20.073 24.316
*N Transmitter/Unit1/N25:5 *C 21.719 24.316
*N Transmitter/Unit1/N25:6 *C 21.732 24.316
*N Transmitter/Unit1/N25:7 *C 21.732 24.456

*CAP
0 Transmitter\/Unit1\/add_62\/U1_1_7:SO 0.001
1 Transmitter\/Unit1\/U24:A1 0.001
2 Transmitter/Unit1/N25:2 0.0140065
3 Transmitter/Unit1/N25:3 0.01543918
4 Transmitter/Unit1/N25:4 0.06482533
5 Transmitter/Unit1/N25:5 0.06482533
6 Transmitter/Unit1/N25:6 0.009405681
7 Transmitter/Unit1/N25:7 0.007973003

*RES
0 Transmitter\/Unit1\/add_62\/U1_1_7:SO Transmitter/Unit1/N25:7 1
1 Transmitter/Unit1/N25:2 Transmitter\/Unit1\/U24:A1 1
2 Transmitter/Unit1/N25:3 Transmitter/Unit1/N25:2 0.2325
3 Transmitter/Unit1/N25:4 Transmitter/Unit1/N25:3 0.5
4 Transmitter/Unit1/N25:6 Transmitter/Unit1/N25:5 0.5
5 Transmitter/Unit1/N25:5 Transmitter/Unit1/N25:4 2.9375
6 Transmitter/Unit1/N25:7 Transmitter/Unit1/N25:6 0.2325

*END

*D_NET Transmitter/Unit1/N26 0.4253303 //LENGTH 4.434 LUMPCC 0 DR

*CONN
*I Transmitter\/Unit1\/add_62\/U1_1_8:SO O *L 0 *C 23.404 21.124
*I Transmitter\/Unit1\/U23:A1 I *L 0.592288 *C 24.164 17.780
*N Transmitter/Unit1/N26:2 *C 24.164 17.794
*N Transmitter/Unit1/N26:3 *C 24.164 20.655
*N Transmitter/Unit1/N26:4 *C 24.151 20.668
*N Transmitter/Unit1/N26:5 *C 23.418 20.668
*N Transmitter/Unit1/N26:6 *C 23.404 20.681
*N Transmitter/Unit1/N26:7 *C 23.404 21.111

*CAP
0 Transmitter\/Unit1\/add_62\/U1_1_8:SO 0.001
1 Transmitter\/Unit1\/U23:A1 0.001
2 Transmitter/Unit1/N26:2 0.1494531
3 Transmitter/Unit1/N26:3 0.1508857
4 Transmitter/Unit1/N26:4 0.03916002
5 Transmitter/Unit1/N26:5 0.03916002
6 Transmitter/Unit1/N26:6 0.02305205
7 Transmitter/Unit1/N26:7 0.02161937

*RES
0 Transmitter\/Unit1\/add_62\/U1_1_8:SO Transmitter/Unit1/N26:7 1
1 Transmitter/Unit1/N26:2 Transmitter\/Unit1\/U23:A1 1
2 Transmitter/Unit1/N26:3 Transmitter/Unit1/N26:2 5.108929
3 Transmitter/Unit1/N26:4 Transmitter/Unit1/N26:3 0.5
4 Transmitter/Unit1/N26:6 Transmitter/Unit1/N26:5 0.5
5 Transmitter/Unit1/N26:5 Transmitter/Unit1/N26:4 1.308929
6 Transmitter/Unit1/N26:7 Transmitter/Unit1/N26:6 0.7660715

*END

*D_NET Transmitter/Unit1/N27 0.3538219 //LENGTH 4.596 LUMPCC 0 DR

*CONN
*I Transmitter\/Unit1\/add_62\/U1_1_9:SO O *L 0 *C 24.012 21.124
*I Transmitter\/Unit1\/U22:A1 I *L 0.592288 *C 20.060 21.124
*N Transmitter/Unit1/N27:2 *C 20.060 21.111
*N Transmitter/Unit1/N27:3 *C 20.060 20.972
*N Transmitter/Unit1/N27:4 *C 20.073 20.972
*N Transmitter/Unit1/N27:5 *C 23.998 20.972
*N Transmitter/Unit1/N27:6 *C 24.012 20.972
*N Transmitter/Unit1/N27:7 *C 24.012 21.111

*CAP
0 Transmitter\/Unit1\/add_62\/U1_1_9:SO 0.001
1 Transmitter\/Unit1\/U22:A1 0.001
2 Transmitter/Unit1/N27:2 0.008955403
3 Transmitter/Unit1/N27:3 0.01038808
4 Transmitter/Unit1/N27:4 0.1546463
5 Transmitter/Unit1/N27:5 0.1546463
6 Transmitter/Unit1/N27:6 0.01230926
7 Transmitter/Unit1/N27:7 0.01087658

*RES
0 Transmitter\/Unit1\/add_62\/U1_1_9:SO Transmitter/Unit1/N27:7 1
1 Transmitter/Unit1/N27:2 Transmitter\/Unit1\/U22:A1 1
2 Transmitter/Unit1/N27:3 Transmitter/Unit1/N27:2 0.2325
3 Transmitter/Unit1/N27:4 Transmitter/Unit1/N27:3 0.5
4 Transmitter/Unit1/N27:6 Transmitter/Unit1/N27:5 0.5
5 Transmitter/Unit1/N27:5 Transmitter/Unit1/N27:4 7.008929
6 Transmitter/Unit1/N27:7 Transmitter/Unit1/N27:6 0.2325

*END

*D_NET Transmitter/Unit1/N28 0.3589883 //LENGTH 3.978 LUMPCC 0 DR

*CONN
*I Transmitter\/Unit1\/add_62\/U1_1_10:SO O *L 0 *C 29.028 21.124
*I Transmitter\/Unit1\/U21:A1 I *L 0.592288 *C 28.724 17.780
*N Transmitter/Unit1/N28:2 *C 28.724 17.794
*N Transmitter/Unit1/N28:3 *C 28.724 18.223
*N Transmitter/Unit1/N28:4 *C 28.738 18.236
*N Transmitter/Unit1/N28:5 *C 29.015 18.236
*N Transmitter/Unit1/N28:6 *C 29.028 18.250
*N Transmitter/Unit1/N28:7 *C 29.028 21.111

*CAP
0 Transmitter\/Unit1\/add_62\/U1_1_10:SO 0.001
1 Transmitter\/Unit1\/U21:A1 0.001
2 Transmitter/Unit1/N28:2 0.02536992
3 Transmitter/Unit1/N28:3 0.0268026
4 Transmitter/Unit1/N28:4 0.01572337
5 Transmitter/Unit1/N28:5 0.01572337
6 Transmitter/Unit1/N28:6 0.1374009
7 Transmitter/Unit1/N28:7 0.1359682

*RES
0 Transmitter\/Unit1\/add_62\/U1_1_10:SO Transmitter/Unit1/N28:7 1
1 Transmitter/Unit1/N28:2 Transmitter\/Unit1\/U21:A1 1
2 Transmitter/Unit1/N28:3 Transmitter/Unit1/N28:2 0.7660715
3 Transmitter/Unit1/N28:4 Transmitter/Unit1/N28:3 0.5
4 Transmitter/Unit1/N28:6 Transmitter/Unit1/N28:5 0.5
5 Transmitter/Unit1/N28:5 Transmitter/Unit1/N28:4 0.4946429
6 Transmitter/Unit1/N28:7 Transmitter/Unit1/N28:6 5.108929

*END

*D_NET Transmitter/Unit1/N29 0.3149487 //LENGTH 3.218 LUMPCC 0 DR

*CONN
*I Transmitter\/Unit1\/add_62\/U1_1_11:SO O *L 0 *C 32.730 22.923
*I Transmitter\/Unit1\/U20:A1 I *L 0.592288 *C 31.612 21.124
*N Transmitter/Unit1/N29:2 *C 31.612 21.137
*N Transmitter/Unit1/N29:3 *C 31.612 22.175
*N Transmitter/Unit1/N29:4 *C 31.626 22.188
*N Transmitter/Unit1/N29:5 *C 32.663 22.188
*N Transmitter/Unit1/N29:6 *C 32.676 22.201
*N Transmitter/Unit1/N29:7 *C 32.676 22.934

*CAP
0 Transmitter\/Unit1\/add_62\/U1_1_11:SO 0.001
1 Transmitter\/Unit1\/U20:A1 0.001
2 Transmitter/Unit1/N29:2 0.05748907
3 Transmitter/Unit1/N29:3 0.05892175
4 Transmitter/Unit1/N29:4 0.04728341
5 Transmitter/Unit1/N29:5 0.04728341
6 Transmitter/Unit1/N29:6 0.05170188
7 Transmitter/Unit1/N29:7 0.0502692

*RES
0 Transmitter\/Unit1\/add_62\/U1_1_11:SO Transmitter/Unit1/N29:7 1
1 Transmitter/Unit1/N29:2 Transmitter\/Unit1\/U20:A1 1
2 Transmitter/Unit1/N29:3 Transmitter/Unit1/N29:2 1.851786
3 Transmitter/Unit1/N29:4 Transmitter/Unit1/N29:3 0.5
4 Transmitter/Unit1/N29:6 Transmitter/Unit1/N29:5 0.5
5 Transmitter/Unit1/N29:5 Transmitter/Unit1/N29:4 1.851786
6 Transmitter/Unit1/N29:7 Transmitter/Unit1/N29:6 1.308929

*END

*D_NET Transmitter/Unit1/N30 0.6576682 //LENGTH 6.370 LUMPCC 0 DR

*CONN
*I Transmitter\/Unit1\/add_62\/U1_1_12:SO O *L 0 *C 34.554 26.267
*I Transmitter\/Unit1\/U19:A1 I *L 0.592288 *C 33.740 21.124
*N Transmitter/Unit1/N30:2 *C 33.740 21.137
*N Transmitter/Unit1/N30:3 *C 33.740 22.188
*N Transmitter/Unit1/N30:4 *C 33.892 22.188
*N Transmitter/Unit1/N30:5 *C 33.892 25.823
*N Transmitter/Unit1/N30:6 *C 33.906 25.836
*N Transmitter/Unit1/N30:7 *C 34.486 25.836
*N Transmitter/Unit1/N30:8 *C 34.500 25.850
*N Transmitter/Unit1/N30:9 *C 34.500 26.279

*CAP
0 Transmitter\/Unit1\/add_62\/U1_1_12:SO 0.001
1 Transmitter\/Unit1\/U19:A1 0.001
2 Transmitter/Unit1/N30:2 0.05576925
3 Transmitter/Unit1/N30:3 0.06757566
4 Transmitter/Unit1/N30:4 0.2148072
5 Transmitter/Unit1/N30:5 0.2044335
6 Transmitter/Unit1/N30:6 0.03111485
7 Transmitter/Unit1/N30:7 0.03111485
8 Transmitter/Unit1/N30:8 0.02614285
9 Transmitter/Unit1/N30:9 0.02471017

*RES
0 Transmitter\/Unit1\/add_62\/U1_1_12:SO Transmitter/Unit1/N30:9 1
1 Transmitter/Unit1/N30:2 Transmitter\/Unit1\/U19:A1 1
2 Transmitter/Unit1/N30:5 Transmitter/Unit1/N30:4 6.490179
3 Transmitter/Unit1/N30:6 Transmitter/Unit1/N30:5 0.5
4 Transmitter/Unit1/N30:8 Transmitter/Unit1/N30:7 0.5
5 Transmitter/Unit1/N30:7 Transmitter/Unit1/N30:6 1.0375
6 Transmitter/Unit1/N30:9 Transmitter/Unit1/N30:8 0.7660715
7 Transmitter/Unit1/N30:3 Transmitter/Unit1/N30:2 1.875893
8 Transmitter/Unit1/N30:4 Transmitter/Unit1/N30:3 0.2714286

*END

*D_NET Transmitter/Unit1/N31 0.4782261 //LENGTH 4.707 LUMPCC 0 DR

*CONN
*I Transmitter\/Unit1\/add_62\/U2:Y O *L 0 *C 35.245 26.158
*I Transmitter\/Unit1\/U18:A1 I *L 0.592288 *C 32.828 27.812
*N Transmitter/Unit1/N31:2 *C 35.260 25.958
*N Transmitter/Unit1/N31:3 *C 32.828 27.799
*N Transmitter/Unit1/N31:4 *C 32.828 26.140
*N Transmitter/Unit1/N31:5 *C 32.979 26.140
*N Transmitter/Unit1/N31:6 *C 32.994 26.140
*N Transmitter/Unit1/N31:7 *C 35.247 26.140
*N Transmitter/Unit1/N31:8 *C 35.260 26.128
*N Transmitter/Unit1/N31:9 *C 35.260 26.140

*CAP
0 Transmitter\/Unit1\/add_62\/U2:Y 0.01566755
1 Transmitter\/Unit1\/U18:A1 0.001
2 Transmitter/Unit1/N31:2 0.01342799
3 Transmitter/Unit1/N31:3 0.1063253
4 Transmitter/Unit1/N31:4 0.1190749
5 Transmitter/Unit1/N31:5 0.00657245
6 Transmitter/Unit1/N31:6 0.09679268
7 Transmitter/Unit1/N31:7 0.09679268
8 Transmitter/Unit1/N31:8 0.008980375
9 Transmitter/Unit1/N31:9 0.01359215

*RES
0 Transmitter\/Unit1\/add_62\/U2:Y Transmitter/Unit1/N31:9 0.09166668
1 Transmitter/Unit1/N31:3 Transmitter\/Unit1\/U18:A1 1
2 Transmitter/Unit1/N31:5 Transmitter/Unit1/N31:4 0.2696429
3 Transmitter/Unit1/N31:6 Transmitter/Unit1/N31:5 0.5
4 Transmitter/Unit1/N31:8 Transmitter/Unit1/N31:7 0.5
5 Transmitter/Unit1/N31:8 Transmitter/Unit1/N31:2 0.2825
6 Transmitter/Unit1/N31:7 Transmitter/Unit1/N31:6 4.023215
7 Transmitter/Unit1/N31:9 Transmitter/Unit1/N31:8 1
8 Transmitter/Unit1/N31:4 Transmitter/Unit1/N31:3 2.961607

*END

*D_NET Transmitter/Unit1/N32 0.262211 //LENGTH 3.223 LUMPCC 0 DR

*CONN
*I Transmitter\/Unit1\/U31:Y O *L 0 *C 35.412 32.676
*I Transmitter\/Unit1\/clock_ticks_reg[0]:D I *L 0.540354 *C 33.740 31.460
*N Transmitter/Unit1/N32:2 *C 33.740 31.474
*N Transmitter/Unit1/N32:3 *C 33.740 32.511
*N Transmitter/Unit1/N32:4 *C 33.754 32.524
*N Transmitter/Unit1/N32:5 *C 35.398 32.524
*N Transmitter/Unit1/N32:6 *C 35.412 32.524
*N Transmitter/Unit1/N32:7 *C 35.412 32.663

*CAP
0 Transmitter\/Unit1\/U31:Y 0.001
1 Transmitter\/Unit1\/clock_ticks_reg[0]:D 0.001
2 Transmitter/Unit1/N32:2 0.04865412
3 Transmitter/Unit1/N32:3 0.0500868
4 Transmitter/Unit1/N32:4 0.07302822
5 Transmitter/Unit1/N32:5 0.07302822
6 Transmitter/Unit1/N32:6 0.008423134
7 Transmitter/Unit1/N32:7 0.006990456

*RES
0 Transmitter\/Unit1\/U31:Y Transmitter/Unit1/N32:7 1
1 Transmitter/Unit1/N32:2 Transmitter\/Unit1\/clock_ticks_reg[0]:D 1
2 Transmitter/Unit1/N32:3 Transmitter/Unit1/N32:2 1.851786
3 Transmitter/Unit1/N32:4 Transmitter/Unit1/N32:3 0.5
4 Transmitter/Unit1/N32:6 Transmitter/Unit1/N32:5 0.5
5 Transmitter/Unit1/N32:5 Transmitter/Unit1/N32:4 2.9375
6 Transmitter/Unit1/N32:7 Transmitter/Unit1/N32:6 0.2325

*END

*D_NET Transmitter/Unit1/N33 0.4773913 //LENGTH 5.630 LUMPCC 0 DR

*CONN
*I Transmitter\/Unit1\/U30:Y O *L 0 *C 36.628 35.868
*I Transmitter\/Unit1\/clock_ticks_reg[1]:D I *L 0.540354 *C 32.524 34.804
*N Transmitter/Unit1/N33:2 *C 36.628 35.686
*N Transmitter/Unit1/N33:3 *C 32.524 34.818
*N Transmitter/Unit1/N33:4 *C 32.524 35.855
*N Transmitter/Unit1/N33:5 *C 32.538 35.868
*N Transmitter/Unit1/N33:6 *C 36.614 35.868
*N Transmitter/Unit1/N33:7 *C 36.628 35.855

*CAP
0 Transmitter\/Unit1\/U30:Y 0.001
1 Transmitter\/Unit1\/clock_ticks_reg[1]:D 0.001
2 Transmitter/Unit1/N33:2 0.0130235
3 Transmitter/Unit1/N33:3 0.04854459
4 Transmitter/Unit1/N33:4 0.04997727
5 Transmitter/Unit1/N33:5 0.1784699
6 Transmitter/Unit1/N33:6 0.1784699
7 Transmitter/Unit1/N33:7 0.006906105

*RES
0 Transmitter\/Unit1\/U30:Y Transmitter/Unit1/N33:7 1
1 Transmitter/Unit1/N33:3 Transmitter\/Unit1\/clock_ticks_reg[1]:D 1
2 Transmitter/Unit1/N33:4 Transmitter/Unit1/N33:3 1.851786
3 Transmitter/Unit1/N33:5 Transmitter/Unit1/N33:4 0.5
4 Transmitter/Unit1/N33:7 Transmitter/Unit1/N33:6 0.5
5 Transmitter/Unit1/N33:7 Transmitter/Unit1/N33:2 0.2825
6 Transmitter/Unit1/N33:6 Transmitter/Unit1/N33:5 7.280358

*END

*D_NET Transmitter/Unit1/N34 0.1439057 //LENGTH 1.813 LUMPCC 0 DR

*CONN
*I Transmitter\/Unit1\/U29:Y O *L 0 *C 27.508 33.588
*I Transmitter\/Unit1\/clock_ticks_reg[2]:D I *L 0.540354 *C 27.964 34.804
*N Transmitter/Unit1/N34:2 *C 27.963 34.804
*N Transmitter/Unit1/N34:3 *C 27.508 34.804
*N Transmitter/Unit1/N34:4 *C 27.508 33.602

*CAP
0 Transmitter\/Unit1\/U29:Y 0.001
1 Transmitter\/Unit1\/clock_ticks_reg[2]:D 0.001
2 Transmitter/Unit1/N34:2 0.01683602
3 Transmitter/Unit1/N34:3 0.07445551
4 Transmitter/Unit1/N34:4 0.05061417

*RES
0 Transmitter\/Unit1\/U29:Y Transmitter/Unit1/N34:4 1
1 Transmitter/Unit1/N34:2 Transmitter\/Unit1\/clock_ticks_reg[2]:D 1
2 Transmitter/Unit1/N34:4 Transmitter/Unit1/N34:3 2.147321
3 Transmitter/Unit1/N34:3 Transmitter/Unit1/N34:2 0.8125001

*END

*D_NET Transmitter/Unit1/N35 0.2352103 //LENGTH 2.421 LUMPCC 0 DR

*CONN
*I Transmitter\/Unit1\/U28:Y O *L 0 *C 22.340 33.588
*I Transmitter\/Unit1\/clock_ticks_reg[3]:D I *L 0.540354 *C 23.404 34.804
*N Transmitter/Unit1/N35:2 *C 23.403 34.804
*N Transmitter/Unit1/N35:3 *C 22.340 34.804
*N Transmitter/Unit1/N35:4 *C 22.340 33.602

*CAP
0 Transmitter\/Unit1\/U28:Y 0.001
1 Transmitter\/Unit1\/clock_ticks_reg[3]:D 0.001
2 Transmitter/Unit1/N35:2 0.04656037
3 Transmitter/Unit1/N35:3 0.1201078
4 Transmitter/Unit1/N35:4 0.0665421

*RES
0 Transmitter\/Unit1\/U28:Y Transmitter/Unit1/N35:4 1
1 Transmitter/Unit1/N35:2 Transmitter\/Unit1\/clock_ticks_reg[3]:D 1
2 Transmitter/Unit1/N35:4 Transmitter/Unit1/N35:3 2.147322
3 Transmitter/Unit1/N35:3 Transmitter/Unit1/N35:2 1.898214

*END

*D_NET Transmitter/Unit1/N36 0.1506662 //LENGTH 1.326 LUMPCC 0 DR

*CONN
*I Transmitter\/Unit1\/U27:Y O *L 0 *C 19.148 33.588
*I Transmitter\/Unit1\/clock_ticks_reg[4]:D I *L 0.540354 *C 19.148 34.804
*N Transmitter/Unit1/N36:2 *C 19.148 34.791
*N Transmitter/Unit1/N36:3 *C 19.148 33.602

*CAP
0 Transmitter\/Unit1\/U27:Y 0.001
1 Transmitter\/Unit1\/clock_ticks_reg[4]:D 0.001
2 Transmitter/Unit1/N36:2 0.07403085
3 Transmitter/Unit1/N36:3 0.07463533

*RES
0 Transmitter\/Unit1\/U27:Y Transmitter/Unit1/N36:3 1
1 Transmitter/Unit1/N36:2 Transmitter\/Unit1\/clock_ticks_reg[4]:D 1
2 Transmitter/Unit1/N36:3 Transmitter/Unit1/N36:2 2.123214

*END

*D_NET Transmitter/Unit1/N37 0.1133055 //LENGTH 1.509 LUMPCC 0 DR

*CONN
*I Transmitter\/Unit1\/U26:Y O *L 0 *C 16.564 25.836
*I Transmitter\/Unit1\/clock_ticks_reg[5]:D I *L 0.540354 *C 17.780 25.988
*N Transmitter/Unit1/N37:2 *C 17.780 25.975
*N Transmitter/Unit1/N37:3 *C 17.780 25.836
*N Transmitter/Unit1/N37:4 *C 16.565 25.836

*CAP
0 Transmitter\/Unit1\/U26:Y 0.001
1 Transmitter\/Unit1\/clock_ticks_reg[5]:D 0.001
2 Transmitter/Unit1/N37:2 0.006031397
3 Transmitter/Unit1/N37:3 0.05942781
4 Transmitter/Unit1/N37:4 0.04584634

*RES
0 Transmitter\/Unit1\/U26:Y Transmitter/Unit1/N37:4 1
1 Transmitter/Unit1/N37:2 Transmitter\/Unit1\/clock_ticks_reg[5]:D 1
2 Transmitter/Unit1/N37:4 Transmitter/Unit1/N37:3 2.169643
3 Transmitter/Unit1/N37:3 Transmitter/Unit1/N37:2 0.2473214

*END

*D_NET Transmitter/Unit1/N38 0.1775218 //LENGTH 2.269 LUMPCC 0 DR

*CONN
*I Transmitter\/Unit1\/U25:Y O *L 0 *C 17.628 30.244
*I Transmitter\/Unit1\/clock_ticks_reg[6]:D I *L 0.540354 *C 18.540 31.460
*N Transmitter/Unit1/N38:2 *C 18.539 31.460
*N Transmitter/Unit1/N38:3 *C 17.628 31.460
*N Transmitter/Unit1/N38:4 *C 17.628 30.258

*CAP
0 Transmitter\/Unit1\/U25:Y 0.001
1 Transmitter\/Unit1\/clock_ticks_reg[6]:D 0.001
2 Transmitter/Unit1/N38:2 0.03256762
3 Transmitter/Unit1/N38:3 0.09126355
4 Transmitter/Unit1/N38:4 0.05169062

*RES
0 Transmitter\/Unit1\/U25:Y Transmitter/Unit1/N38:4 1
1 Transmitter/Unit1/N38:2 Transmitter\/Unit1\/clock_ticks_reg[6]:D 1
2 Transmitter/Unit1/N38:4 Transmitter/Unit1/N38:3 2.147321
3 Transmitter/Unit1/N38:3 Transmitter/Unit1/N38:2 1.626786

*END

*D_NET Transmitter/Unit1/N39 0.259293 //LENGTH 3.375 LUMPCC 0 DR

*CONN
*I Transmitter\/Unit1\/U24:Y O *L 0 *C 19.604 23.860
*I Transmitter\/Unit1\/clock_ticks_reg[7]:D I *L 0.540354 *C 17.780 22.644
*N Transmitter/Unit1/N39:2 *C 17.780 22.658
*N Transmitter/Unit1/N39:3 *C 17.780 23.695
*N Transmitter/Unit1/N39:4 *C 17.794 23.708
*N Transmitter/Unit1/N39:5 *C 19.591 23.708
*N Transmitter/Unit1/N39:6 *C 19.604 23.708
*N Transmitter/Unit1/N39:7 *C 19.604 23.848

*CAP
0 Transmitter\/Unit1\/U24:Y 0.001
1 Transmitter\/Unit1\/clock_ticks_reg[7]:D 0.001
2 Transmitter/Unit1/N39:2 0.0455393
3 Transmitter/Unit1/N39:3 0.04697198
4 Transmitter/Unit1/N39:4 0.07141747
5 Transmitter/Unit1/N39:5 0.07141747
6 Transmitter/Unit1/N39:6 0.0113875
7 Transmitter/Unit1/N39:7 0.01055929

*RES
0 Transmitter\/Unit1\/U24:Y Transmitter/Unit1/N39:7 1
1 Transmitter/Unit1/N39:2 Transmitter\/Unit1\/clock_ticks_reg[7]:D 1
2 Transmitter/Unit1/N39:3 Transmitter/Unit1/N39:2 1.851786
3 Transmitter/Unit1/N39:4 Transmitter/Unit1/N39:3 0.5
4 Transmitter/Unit1/N39:6 Transmitter/Unit1/N39:5 0.5
5 Transmitter/Unit1/N39:5 Transmitter/Unit1/N39:4 3.208929
6 Transmitter/Unit1/N39:7 Transmitter/Unit1/N39:6 0.2325

*END

*D_NET Transmitter/Unit1/N40 0.5718829 //LENGTH 6.111 LUMPCC 0 DR

*CONN
*I Transmitter\/Unit1\/U23:Y O *L 0 *C 23.708 18.540
*I Transmitter\/Unit1\/clock_ticks_reg[8]:D I *L 0.540354 *C 18.692 19.300
*N Transmitter/Unit1/N40:2 *C 18.692 19.288
*N Transmitter/Unit1/N40:3 *C 18.692 19.148
*N Transmitter/Unit1/N40:4 *C 18.706 19.148
*N Transmitter/Unit1/N40:5 *C 23.695 19.148
*N Transmitter/Unit1/N40:6 *C 23.708 19.134
*N Transmitter/Unit1/N40:7 *C 23.708 18.553

*CAP
0 Transmitter\/Unit1\/U23:Y 0.001
1 Transmitter\/Unit1\/clock_ticks_reg[8]:D 0.001
2 Transmitter/Unit1/N40:2 0.007285808
3 Transmitter/Unit1/N40:3 0.008718487
4 Transmitter/Unit1/N40:4 0.2481262
5 Transmitter/Unit1/N40:5 0.2481262
6 Transmitter/Unit1/N40:6 0.02915906
7 Transmitter/Unit1/N40:7 0.02846704

*RES
0 Transmitter\/Unit1\/U23:Y Transmitter/Unit1/N40:7 1
1 Transmitter/Unit1/N40:2 Transmitter\/Unit1\/clock_ticks_reg[8]:D 1
2 Transmitter/Unit1/N40:3 Transmitter/Unit1/N40:2 0.2325
3 Transmitter/Unit1/N40:4 Transmitter/Unit1/N40:3 0.5
4 Transmitter/Unit1/N40:6 Transmitter/Unit1/N40:5 0.5
5 Transmitter/Unit1/N40:5 Transmitter/Unit1/N40:4 8.908929
6 Transmitter/Unit1/N40:7 Transmitter/Unit1/N40:6 1.0375

*END

*D_NET Transmitter/Unit1/N41 0.3418338 //LENGTH 4.130 LUMPCC 0 DR

*CONN
*I Transmitter\/Unit1\/U22:Y O *L 0 *C 20.516 20.516
*I Transmitter\/Unit1\/clock_ticks_reg[9]:D I *L 0.540354 *C 23.100 19.300
*N Transmitter/Unit1/N41:2 *C 23.100 19.314
*N Transmitter/Unit1/N41:3 *C 23.100 20.047
*N Transmitter/Unit1/N41:4 *C 23.087 20.060
*N Transmitter/Unit1/N41:5 *C 20.530 20.060
*N Transmitter/Unit1/N41:6 *C 20.516 20.073
*N Transmitter/Unit1/N41:7 *C 20.516 20.503

*CAP
0 Transmitter\/Unit1\/U22:Y 0.001
1 Transmitter\/Unit1\/clock_ticks_reg[9]:D 0.001
2 Transmitter/Unit1/N41:2 0.03585297
3 Transmitter/Unit1/N41:3 0.03728565
4 Transmitter/Unit1/N41:4 0.1098393
5 Transmitter/Unit1/N41:5 0.1098393
6 Transmitter/Unit1/N41:6 0.02392245
7 Transmitter/Unit1/N41:7 0.02309424

*RES
0 Transmitter\/Unit1\/U22:Y Transmitter/Unit1/N41:7 1
1 Transmitter/Unit1/N41:2 Transmitter\/Unit1\/clock_ticks_reg[9]:D 1
2 Transmitter/Unit1/N41:3 Transmitter/Unit1/N41:2 1.308929
3 Transmitter/Unit1/N41:4 Transmitter/Unit1/N41:3 0.5
4 Transmitter/Unit1/N41:6 Transmitter/Unit1/N41:5 0.5
5 Transmitter/Unit1/N41:5 Transmitter/Unit1/N41:4 4.566072
6 Transmitter/Unit1/N41:7 Transmitter/Unit1/N41:6 0.7660714

*END

*D_NET Transmitter/Unit1/N42 0.176883 //LENGTH 2.007 LUMPCC 0 DR

*CONN
*I Transmitter\/Unit1\/U21:Y O *L 0 *C 28.268 18.540
*I Transmitter\/Unit1\/clock_ticks_reg[10]:D I *L 0.540354 *C 27.356 19.300
*N Transmitter/Unit1/N42:2 *C 27.356 19.288
*N Transmitter/Unit1/N42:3 *C 27.356 19.148
*N Transmitter/Unit1/N42:4 *C 27.370 19.148
*N Transmitter/Unit1/N42:5 *C 28.255 19.148
*N Transmitter/Unit1/N42:6 *C 28.268 19.134
*N Transmitter/Unit1/N42:7 *C 28.268 18.553

*CAP
0 Transmitter\/Unit1\/U21:Y 0.001
1 Transmitter\/Unit1\/clock_ticks_reg[10]:D 0.001
2 Transmitter/Unit1/N42:2 0.01795317
3 Transmitter/Unit1/N42:3 0.01938585
4 Transmitter/Unit1/N42:4 0.04062678
5 Transmitter/Unit1/N42:5 0.04062678
6 Transmitter/Unit1/N42:6 0.02849124
7 Transmitter/Unit1/N42:7 0.02779922

*RES
0 Transmitter\/Unit1\/U21:Y Transmitter/Unit1/N42:7 1
1 Transmitter/Unit1/N42:2 Transmitter\/Unit1\/clock_ticks_reg[10]:D 1
2 Transmitter/Unit1/N42:3 Transmitter/Unit1/N42:2 0.2325
3 Transmitter/Unit1/N42:4 Transmitter/Unit1/N42:3 0.5
4 Transmitter/Unit1/N42:6 Transmitter/Unit1/N42:5 0.5
5 Transmitter/Unit1/N42:5 Transmitter/Unit1/N42:4 1.580357
6 Transmitter/Unit1/N42:7 Transmitter/Unit1/N42:6 1.0375

*END

*D_NET Transmitter/Unit1/N43 0.2225481 //LENGTH 2.767 LUMPCC 0 DR

*CONN
*I Transmitter\/Unit1\/U20:Y O *L 0 *C 32.068 21.884
*I Transmitter\/Unit1\/clock_ticks_reg[11]:D I *L 0.540354 *C 33.740 22.644
*N Transmitter/Unit1/N43:2 *C 33.740 22.632
*N Transmitter/Unit1/N43:3 *C 33.740 22.492
*N Transmitter/Unit1/N43:4 *C 33.727 22.492
*N Transmitter/Unit1/N43:5 *C 32.081 22.492
*N Transmitter/Unit1/N43:6 *C 32.068 22.479
*N Transmitter/Unit1/N43:7 *C 32.068 21.898

*CAP
0 Transmitter\/Unit1\/U20:Y 0.001
1 Transmitter\/Unit1\/clock_ticks_reg[11]:D 0.001
2 Transmitter/Unit1/N43:2 0.01034052
3 Transmitter/Unit1/N43:3 0.01177319
4 Transmitter/Unit1/N43:4 0.07012642
5 Transmitter/Unit1/N43:5 0.07012642
6 Transmitter/Unit1/N43:6 0.02943678
7 Transmitter/Unit1/N43:7 0.02874476

*RES
0 Transmitter\/Unit1\/U20:Y Transmitter/Unit1/N43:7 1
1 Transmitter/Unit1/N43:2 Transmitter\/Unit1\/clock_ticks_reg[11]:D 1
2 Transmitter/Unit1/N43:3 Transmitter/Unit1/N43:2 0.2325
3 Transmitter/Unit1/N43:4 Transmitter/Unit1/N43:3 0.5
4 Transmitter/Unit1/N43:6 Transmitter/Unit1/N43:5 0.5
5 Transmitter/Unit1/N43:5 Transmitter/Unit1/N43:4 2.9375
6 Transmitter/Unit1/N43:7 Transmitter/Unit1/N43:6 1.0375

*END

*D_NET Transmitter/Unit1/N44 0.3672211 //LENGTH 3.679 LUMPCC 0 DR

*CONN
*I Transmitter\/Unit1\/U19:Y O *L 0 *C 34.196 21.884
*I Transmitter\/Unit1\/clock_ticks_reg[12]:D I *L 0.540354 *C 33.740 24.772
*N Transmitter/Unit1/N44:2 *C 33.740 24.760
*N Transmitter/Unit1/N44:3 *C 33.740 24.620
*N Transmitter/Unit1/N44:4 *C 33.754 24.620
*N Transmitter/Unit1/N44:5 *C 34.183 24.620
*N Transmitter/Unit1/N44:6 *C 34.196 24.607
*N Transmitter/Unit1/N44:7 *C 34.196 21.898

*CAP
0 Transmitter\/Unit1\/U19:Y 0.001
1 Transmitter\/Unit1\/clock_ticks_reg[12]:D 0.001
2 Transmitter/Unit1/N44:2 0.01389757
3 Transmitter/Unit1/N44:3 0.01533025
4 Transmitter/Unit1/N44:4 0.02194307
5 Transmitter/Unit1/N44:5 0.02194307
6 Transmitter/Unit1/N44:6 0.1463996
7 Transmitter/Unit1/N44:7 0.1457076

*RES
0 Transmitter\/Unit1\/U19:Y Transmitter/Unit1/N44:7 1
1 Transmitter/Unit1/N44:2 Transmitter\/Unit1\/clock_ticks_reg[12]:D 1
2 Transmitter/Unit1/N44:3 Transmitter/Unit1/N44:2 0.2325
3 Transmitter/Unit1/N44:4 Transmitter/Unit1/N44:3 0.5
4 Transmitter/Unit1/N44:6 Transmitter/Unit1/N44:5 0.5
5 Transmitter/Unit1/N44:5 Transmitter/Unit1/N44:4 0.7660715
6 Transmitter/Unit1/N44:7 Transmitter/Unit1/N44:6 4.837501

*END

*D_NET Transmitter/Unit1/N45 0.08902421 //LENGTH 1.053 LUMPCC 0 DR

*CONN
*I Transmitter\/Unit1\/U18:Y O *L 0 *C 33.284 28.572
*I Transmitter\/Unit1\/clock_ticks_reg[13]:D I *L 0.540366 *C 33.436 29.332
*N Transmitter/Unit1/N45:2 *C 33.435 29.332
*N Transmitter/Unit1/N45:3 *C 33.284 29.332
*N Transmitter/Unit1/N45:4 *C 33.284 28.585

*CAP
0 Transmitter\/Unit1\/U18:Y 0.001
1 Transmitter\/Unit1\/clock_ticks_reg[13]:D 0.001
2 Transmitter/Unit1/N45:2 0.005147764
3 Transmitter/Unit1/N45:3 0.04694667
4 Transmitter/Unit1/N45:4 0.03492977

*RES
0 Transmitter\/Unit1\/U18:Y Transmitter/Unit1/N45:4 1
1 Transmitter/Unit1/N45:2 Transmitter\/Unit1\/clock_ticks_reg[13]:D 1
2 Transmitter/Unit1/N45:4 Transmitter/Unit1/N45:3 1.333036
3 Transmitter/Unit1/N45:3 Transmitter/Unit1/N45:2 0.2696429

*END

*D_NET Transmitter/Unit1/N46 0.1333862 //LENGTH 1.734 LUMPCC 0 DR

*CONN
*I Transmitter\/Unit1\/U4:Y O *L 0 *C 32.524 18.540
*I Transmitter\/Unit1\/baud_clk_reg:D I *L 0.540354 *C 32.220 19.300
*N Transmitter/Unit1/N46:2 *C 32.220 19.288
*N Transmitter/Unit1/N46:3 *C 32.220 19.148
*N Transmitter/Unit1/N46:4 *C 32.233 19.148
*N Transmitter/Unit1/N46:5 *C 32.663 19.148
*N Transmitter/Unit1/N46:6 *C 32.676 19.134
*N Transmitter/Unit1/N46:7 *C 32.676 18.540
*N Transmitter/Unit1/N46:8 *C 32.525 18.540

*CAP
0 Transmitter\/Unit1\/U4:Y 0.001
1 Transmitter\/Unit1\/baud_clk_reg:D 0.001
2 Transmitter/Unit1/N46:2 0.007559619
3 Transmitter/Unit1/N46:3 0.008992298
4 Transmitter/Unit1/N46:4 0.02168965
5 Transmitter/Unit1/N46:5 0.02168965
6 Transmitter/Unit1/N46:6 0.0270969
7 Transmitter/Unit1/N46:7 0.03791796
8 Transmitter/Unit1/N46:8 0.006440071

*RES
0 Transmitter\/Unit1\/U4:Y Transmitter/Unit1/N46:8 1
1 Transmitter/Unit1/N46:2 Transmitter\/Unit1\/baud_clk_reg:D 1
2 Transmitter/Unit1/N46:3 Transmitter/Unit1/N46:2 0.2325
3 Transmitter/Unit1/N46:4 Transmitter/Unit1/N46:3 0.5
4 Transmitter/Unit1/N46:6 Transmitter/Unit1/N46:5 0.5
5 Transmitter/Unit1/N46:5 Transmitter/Unit1/N46:4 0.7660714
6 Transmitter/Unit1/N46:8 Transmitter/Unit1/N46:7 0.2696429
7 Transmitter/Unit1/N46:7 Transmitter/Unit1/N46:6 1.061607

*END

*D_NET Transmitter/Unit1/n5 0.4354949 //LENGTH 4.746 LUMPCC 0 DR

*CONN
*I Transmitter\/Unit1\/clock_ticks_reg[6]:QN O *L 0 *C 22.370 30.907
*I Transmitter\/Unit1\/U38:A4 I *L 0.504436 *C 26.292 31.004
*N Transmitter/Unit1/n5:2 *C 26.292 30.991
*N Transmitter/Unit1/n5:3 *C 26.292 30.713
*N Transmitter/Unit1/n5:4 *C 26.279 30.700
*N Transmitter/Unit1/n5:5 *C 22.354 30.700
*N Transmitter/Unit1/n5:6 *C 22.340 30.700
*N Transmitter/Unit1/n5:7 *C 22.340 30.840

*CAP
0 Transmitter\/Unit1\/clock_ticks_reg[6]:QN 0.001
1 Transmitter\/Unit1\/U38:A4 0.001
2 Transmitter/Unit1/n5:2 0.0254851
3 Transmitter/Unit1/n5:3 0.02691778
4 Transmitter/Unit1/n5:4 0.1808407
5 Transmitter/Unit1/n5:5 0.1808407
6 Transmitter/Unit1/n5:6 0.01042163
7 Transmitter/Unit1/n5:7 0.00898895

*RES
0 Transmitter\/Unit1\/clock_ticks_reg[6]:QN Transmitter/Unit1/n5:7 1
1 Transmitter/Unit1/n5:2 Transmitter\/Unit1\/U38:A4 1
2 Transmitter/Unit1/n5:3 Transmitter/Unit1/n5:2 0.4946429
3 Transmitter/Unit1/n5:4 Transmitter/Unit1/n5:3 0.5
4 Transmitter/Unit1/n5:6 Transmitter/Unit1/n5:5 0.5
5 Transmitter/Unit1/n5:5 Transmitter/Unit1/n5:4 7.008929
6 Transmitter/Unit1/n5:7 Transmitter/Unit1/n5:6 0.2325

*END

*D_NET Transmitter/Unit1/n6 0.2766325 //LENGTH 3.198 LUMPCC 0 DR

*CONN
*I Transmitter\/Unit1\/clock_ticks_reg[4]:QN O *L 0 *C 22.796 33.892
*I Transmitter\/Unit1\/U39:A2 I *L 0.458594 *C 24.772 33.132
*N Transmitter/Unit1/n6:2 *C 24.772 32.950
*N Transmitter/Unit1/n6:3 *C 24.772 33.120
*N Transmitter/Unit1/n6:4 *C 24.759 33.132
*N Transmitter/Unit1/n6:5 *C 22.809 33.132
*N Transmitter/Unit1/n6:6 *C 22.796 33.145
*N Transmitter/Unit1/n6:7 *C 22.796 33.879

*CAP
0 Transmitter\/Unit1\/clock_ticks_reg[4]:QN 0.001
1 Transmitter\/Unit1\/U39:A2 0.001
2 Transmitter/Unit1/n6:2 0.01911007
3 Transmitter/Unit1/n6:3 0.01293296
4 Transmitter/Unit1/n6:4 0.08702011
5 Transmitter/Unit1/n6:5 0.08702011
6 Transmitter/Unit1/n6:6 0.0344894
7 Transmitter/Unit1/n6:7 0.03405983

*RES
0 Transmitter\/Unit1\/clock_ticks_reg[4]:QN Transmitter/Unit1/n6:7 1
1 Transmitter/Unit1/n6:3 Transmitter\/Unit1\/U39:A2 1
2 Transmitter/Unit1/n6:3 Transmitter/Unit1/n6:2 0.2825
3 Transmitter/Unit1/n6:4 Transmitter/Unit1/n6:3 0.5
4 Transmitter/Unit1/n6:6 Transmitter/Unit1/n6:5 0.5
5 Transmitter/Unit1/n6:5 Transmitter/Unit1/n6:4 3.480358
6 Transmitter/Unit1/n6:7 Transmitter/Unit1/n6:6 1.308929

*END

*D_NET Transmitter/Unit1/n7 0.2947998 //LENGTH 3.679 LUMPCC 0 DR

*CONN
*I Transmitter\/Unit1\/clock_ticks_reg[3]:QN O *L 0 *C 27.052 33.892
*I Transmitter\/Unit1\/U39:A4 I *L 0.545401 *C 24.924 32.676
*N Transmitter/Unit1/n7:2 *C 24.924 32.690
*N Transmitter/Unit1/n7:3 *C 24.924 33.727
*N Transmitter/Unit1/n7:4 *C 24.938 33.740
*N Transmitter/Unit1/n7:5 *C 27.039 33.740
*N Transmitter/Unit1/n7:6 *C 27.052 33.740
*N Transmitter/Unit1/n7:7 *C 27.052 33.880

*CAP
0 Transmitter\/Unit1\/clock_ticks_reg[3]:QN 0.001
1 Transmitter\/Unit1\/U39:A4 0.001
2 Transmitter/Unit1/n7:2 0.05319772
3 Transmitter/Unit1/n7:3 0.0546304
4 Transmitter/Unit1/n7:4 0.08011401
5 Transmitter/Unit1/n7:5 0.08011401
6 Transmitter/Unit1/n7:6 0.01258661
7 Transmitter/Unit1/n7:7 0.01215704

*RES
0 Transmitter\/Unit1\/clock_ticks_reg[3]:QN Transmitter/Unit1/n7:7 1
1 Transmitter/Unit1/n7:2 Transmitter\/Unit1\/U39:A4 1
2 Transmitter/Unit1/n7:3 Transmitter/Unit1/n7:2 1.851786
3 Transmitter/Unit1/n7:4 Transmitter/Unit1/n7:3 0.5
4 Transmitter/Unit1/n7:6 Transmitter/Unit1/n7:5 0.5
5 Transmitter/Unit1/n7:5 Transmitter/Unit1/n7:4 3.751786
6 Transmitter/Unit1/n7:7 Transmitter/Unit1/n7:6 0.2325

*END

*D_NET Transmitter/Unit1/n11 5.730796 //LENGTH 67.746 LUMPCC 0 DR

*CONN
*I Transmitter\/Unit1\/U32:Y O *L 0 *C 31.916 29.180
*I Transmitter\/Unit1\/U4:A2 I *L 0.973269 *C 31.004 17.932
*I Transmitter\/Unit1\/U21:A2 I *L 0.529633 *C 28.876 17.932
*I Transmitter\/Unit1\/U23:A2 I *L 0.529633 *C 24.316 17.932
*I Transmitter\/Unit1\/U20:A2 I *L 0.529633 *C 31.460 21.276
*I Transmitter\/Unit1\/U19:A2 I *L 0.529633 *C 33.588 21.276
*I Transmitter\/Unit1\/U18:A2 I *L 0.529633 *C 32.676 27.964
*I Transmitter\/Unit1\/U29:A2 I *L 0.529633 *C 26.900 32.828
*I Transmitter\/Unit1\/U28:A2 I *L 0.529633 *C 21.732 32.828
*I Transmitter\/Unit1\/U27:A2 I *L 0.529633 *C 19.756 32.828
*I Transmitter\/Unit1\/U25:A2 I *L 0.529633 *C 18.236 29.484
*I Transmitter\/Unit1\/U26:A2 I *L 0.529633 *C 17.172 26.140
*I Transmitter\/Unit1\/U24:A2 I *L 0.529633 *C 20.212 24.620
*I Transmitter\/Unit1\/U22:A2 I *L 0.529633 *C 19.908 21.276
*I Transmitter\/Unit1\/U31:A2 I *L 0.529633 *C 36.172 32.828
*I Transmitter\/Unit1\/U30:A2 I *L 0.529633 *C 37.236 36.172
*N Transmitter/Unit1/n11:16 *C 37.236 36.159
*N Transmitter/Unit1/n11:17 *C 37.236 35.578
*N Transmitter/Unit1/n11:18 *C 37.223 35.564
*N Transmitter/Unit1/n11:19 *C 36.489 35.564
*N Transmitter/Unit1/n11:20 *C 36.476 35.550
*N Transmitter/Unit1/n11:21 *C 36.476 32.842
*N Transmitter/Unit1/n11:22 *C 36.462 32.828
*N Transmitter/Unit1/n11:23 *C 36.172 32.646
*N Transmitter/Unit1/n11:24 *C 36.172 32.816
*N Transmitter/Unit1/n11:25 *C 36.172 32.828
*N Transmitter/Unit1/n11:26 *C 19.908 21.290
*N Transmitter/Unit1/n11:27 *C 20.212 24.438
*N Transmitter/Unit1/n11:28 *C 20.212 24.608
*N Transmitter/Unit1/n11:29 *C 20.198 24.620
*N Transmitter/Unit1/n11:30 *C 19.922 24.620
*N Transmitter/Unit1/n11:31 *C 19.908 24.620
*N Transmitter/Unit1/n11:32 *C 19.908 26.127
*N Transmitter/Unit1/n11:33 *C 19.895 26.140
*N Transmitter/Unit1/n11:34 *C 17.172 25.958
*N Transmitter/Unit1/n11:35 *C 17.172 26.128
*N Transmitter/Unit1/n11:36 *C 17.186 26.140
*N Transmitter/Unit1/n11:37 *C 18.388 26.140
*N Transmitter/Unit1/n11:38 *C 18.388 26.154
*N Transmitter/Unit1/n11:39 *C 18.236 29.471
*N Transmitter/Unit1/n11:40 *C 18.236 29.180
*N Transmitter/Unit1/n11:41 *C 18.388 29.167
*N Transmitter/Unit1/n11:42 *C 18.402 29.180
*N Transmitter/Unit1/n11:43 *C 19.742 29.180
*N Transmitter/Unit1/n11:44 *C 19.756 29.194
*N Transmitter/Unit1/n11:45 *C 19.756 32.815
*N Transmitter/Unit1/n11:46 *C 19.770 32.828
*N Transmitter/Unit1/n11:47 *C 21.732 32.646
*N Transmitter/Unit1/n11:48 *C 21.732 32.816
*N Transmitter/Unit1/n11:49 *C 21.732 32.828
*N Transmitter/Unit1/n11:50 *C 26.900 32.646
*N Transmitter/Unit1/n11:51 *C 26.900 32.816
*N Transmitter/Unit1/n11:52 *C 26.900 32.828
*N Transmitter/Unit1/n11:53 *C 32.372 32.828
*N Transmitter/Unit1/n11:54 *C 32.372 32.815
*N Transmitter/Unit1/n11:55 *C 32.676 27.951
*N Transmitter/Unit1/n11:56 *C 33.588 21.094
*N Transmitter/Unit1/n11:57 *C 33.588 21.264
*N Transmitter/Unit1/n11:58 *C 33.575 21.276
*N Transmitter/Unit1/n11:59 *C 31.460 21.262
*N Transmitter/Unit1/n11:60 *C 24.316 17.750
*N Transmitter/Unit1/n11:61 *C 24.316 17.919
*N Transmitter/Unit1/n11:62 *C 24.329 17.932
*N Transmitter/Unit1/n11:63 *C 28.876 17.750
*N Transmitter/Unit1/n11:64 *C 28.876 17.919
*N Transmitter/Unit1/n11:65 *C 28.876 17.932
*N Transmitter/Unit1/n11:66 *C 31.004 17.750
*N Transmitter/Unit1/n11:67 *C 31.004 17.919
*N Transmitter/Unit1/n11:68 *C 31.004 17.932
*N Transmitter/Unit1/n11:69 *C 31.447 17.932
*N Transmitter/Unit1/n11:70 *C 31.460 17.945
*N Transmitter/Unit1/n11:71 *C 31.460 20.972
*N Transmitter/Unit1/n11:72 *C 31.474 20.972
*N Transmitter/Unit1/n11:73 *C 32.372 20.972
*N Transmitter/Unit1/n11:74 *C 32.372 21.276
*N Transmitter/Unit1/n11:75 *C 32.828 21.276
*N Transmitter/Unit1/n11:76 *C 32.828 21.290
*N Transmitter/Unit1/n11:77 *C 32.828 25.988
*N Transmitter/Unit1/n11:78 *C 32.676 25.988
*N Transmitter/Unit1/n11:79 *C 32.676 27.660
*N Transmitter/Unit1/n11:80 *C 32.524 27.660
*N Transmitter/Unit1/n11:81 *C 32.524 29.484
*N Transmitter/Unit1/n11:82 *C 32.372 29.484
*N Transmitter/Unit1/n11:83 *C 32.358 29.484
*N Transmitter/Unit1/n11:84 *C 31.930 29.484
*N Transmitter/Unit1/n11:85 *C 31.916 29.471
*N Transmitter/Unit1/n11:86 *C 31.916 29.194

*CAP
0 Transmitter\/Unit1\/U32:Y 0.001
1 Transmitter\/Unit1\/U4:A2 0.001
2 Transmitter\/Unit1\/U21:A2 0.001
3 Transmitter\/Unit1\/U23:A2 0.001
4 Transmitter\/Unit1\/U20:A2 0.001
5 Transmitter\/Unit1\/U19:A2 0.001
6 Transmitter\/Unit1\/U18:A2 0.001
7 Transmitter\/Unit1\/U29:A2 0.001
8 Transmitter\/Unit1\/U28:A2 0.001
9 Transmitter\/Unit1\/U27:A2 0.001
10 Transmitter\/Unit1\/U25:A2 0.001
11 Transmitter\/Unit1\/U26:A2 0.001
12 Transmitter\/Unit1\/U24:A2 0.001
13 Transmitter\/Unit1\/U22:A2 0.001
14 Transmitter\/Unit1\/U31:A2 0.001
15 Transmitter\/Unit1\/U30:A2 0.001
16 Transmitter/Unit1/n11:16 0.02798441
17 Transmitter/Unit1/n11:17 0.02941709
18 Transmitter/Unit1/n11:18 0.03087176
19 Transmitter/Unit1/n11:19 0.03087176
20 Transmitter/Unit1/n11:20 0.1221858
21 Transmitter/Unit1/n11:21 0.1221858
22 Transmitter/Unit1/n11:22 0.01018458
23 Transmitter/Unit1/n11:23 0.01617845
24 Transmitter/Unit1/n11:24 0.01000134
25 Transmitter/Unit1/n11:25 0.1509973
26 Transmitter/Unit1/n11:26 0.1502187
27 Transmitter/Unit1/n11:27 0.0154151
28 Transmitter/Unit1/n11:28 0.009237987
29 Transmitter/Unit1/n11:29 0.0166842
30 Transmitter/Unit1/n11:30 0.0166842
31 Transmitter/Unit1/n11:31 0.2307101
32 Transmitter/Unit1/n11:32 0.07668655
33 Transmitter/Unit1/n11:33 0.05854013
34 Transmitter/Unit1/n11:34 0.01636289
35 Transmitter/Unit1/n11:35 0.01018578
36 Transmitter/Unit1/n11:36 0.04394531
37 Transmitter/Unit1/n11:37 0.1048577
38 Transmitter/Unit1/n11:38 0.1310702
39 Transmitter/Unit1/n11:39 0.01591571
40 Transmitter/Unit1/n11:40 0.02832968
41 Transmitter/Unit1/n11:41 0.1396793
42 Transmitter/Unit1/n11:42 0.0648213
43 Transmitter/Unit1/n11:43 0.0648213
44 Transmitter/Unit1/n11:44 0.2413156
45 Transmitter/Unit1/n11:45 0.2375107
46 Transmitter/Unit1/n11:46 0.0692476
47 Transmitter/Unit1/n11:47 0.01552942
48 Transmitter/Unit1/n11:48 0.009352301
49 Transmitter/Unit1/n11:49 0.2751303
50 Transmitter/Unit1/n11:50 0.01734518
51 Transmitter/Unit1/n11:51 0.01116807
52 Transmitter/Unit1/n11:52 0.3855113
53 Transmitter/Unit1/n11:53 0.3204413
54 Transmitter/Unit1/n11:54 0.1444621
55 Transmitter/Unit1/n11:55 0.02003182
56 Transmitter/Unit1/n11:56 0.01634928
57 Transmitter/Unit1/n11:57 0.01017216
58 Transmitter/Unit1/n11:58 0.02744559
59 Transmitter/Unit1/n11:59 0.01516441
60 Transmitter/Unit1/n11:60 0.01325278
61 Transmitter/Unit1/n11:61 0.00707566
62 Transmitter/Unit1/n11:62 0.1567215
63 Transmitter/Unit1/n11:63 0.01411181
64 Transmitter/Unit1/n11:64 0.007934692
65 Transmitter/Unit1/n11:65 0.2322747
66 Transmitter/Unit1/n11:66 0.01322466
67 Transmitter/Unit1/n11:67 0.007047548
68 Transmitter/Unit1/n11:68 0.09119396
69 Transmitter/Unit1/n11:69 0.01564085
70 Transmitter/Unit1/n11:70 0.1352751
71 Transmitter/Unit1/n11:71 0.1542444
72 Transmitter/Unit1/n11:72 0.03377576
73 Transmitter/Unit1/n11:73 0.04803344
74 Transmitter/Unit1/n11:74 0.02964877
75 Transmitter/Unit1/n11:75 0.0452089
76 Transmitter/Unit1/n11:76 0.2236271
77 Transmitter/Unit1/n11:77 0.2348588
78 Transmitter/Unit1/n11:78 0.1097766
79 Transmitter/Unit1/n11:79 0.1331197
80 Transmitter/Unit1/n11:80 0.1060458
81 Transmitter/Unit1/n11:81 0.1066326
82 Transmitter/Unit1/n11:82 0.1534147
83 Transmitter/Unit1/n11:83 0.02543117
84 Transmitter/Unit1/n11:84 0.02543117
85 Transmitter/Unit1/n11:85 0.01600291
86 Transmitter/Unit1/n11:86 0.01457024

*RES
0 Transmitter\/Unit1\/U32:Y Transmitter/Unit1/n11:86 1
1 Transmitter/Unit1/n11:21 Transmitter/Unit1/n11:20 4.837501
2 Transmitter/Unit1/n11:22 Transmitter/Unit1/n11:21 0.5
3 Transmitter/Unit1/n11:20 Transmitter/Unit1/n11:19 0.5
4 Transmitter/Unit1/n11:19 Transmitter/Unit1/n11:18 1.308929
5 Transmitter/Unit1/n11:17 Transmitter/Unit1/n11:16 1.0375
6 Transmitter/Unit1/n11:18 Transmitter/Unit1/n11:17 0.5
7 Transmitter/Unit1/n11:16 Transmitter\/Unit1\/U30:A2 1
8 Transmitter/Unit1/n11:24 Transmitter\/Unit1\/U31:A2 1
9 Transmitter/Unit1/n11:24 Transmitter/Unit1/n11:23 0.2825
10 Transmitter/Unit1/n11:25 Transmitter/Unit1/n11:24 0.5
11 Transmitter/Unit1/n11:25 Transmitter/Unit1/n11:22 0.5187501
12 Transmitter/Unit1/n11:57 Transmitter\/Unit1\/U19:A2 1
13 Transmitter/Unit1/n11:57 Transmitter/Unit1/n11:56 0.2825
14 Transmitter/Unit1/n11:58 Transmitter/Unit1/n11:57 0.5
15 Transmitter/Unit1/n11:76 Transmitter/Unit1/n11:75 0.5
16 Transmitter/Unit1/n11:75 Transmitter/Unit1/n11:74 0.8142858
17 Transmitter/Unit1/n11:75 Transmitter/Unit1/n11:58 1.333036
18 Transmitter/Unit1/n11:55 Transmitter\/Unit1\/U18:A2 1
19 Transmitter/Unit1/n11:54 Transmitter/Unit1/n11:53 0.5
20 Transmitter/Unit1/n11:53 Transmitter/Unit1/n11:52 9.771429
21 Transmitter/Unit1/n11:53 Transmitter/Unit1/n11:25 6.785715
22 Transmitter/Unit1/n11:82 Transmitter/Unit1/n11:81 0.2714286
23 Transmitter/Unit1/n11:82 Transmitter/Unit1/n11:54 5.947322
24 Transmitter/Unit1/n11:83 Transmitter/Unit1/n11:82 0.5
25 Transmitter/Unit1/n11:85 Transmitter/Unit1/n11:84 0.5
26 Transmitter/Unit1/n11:84 Transmitter/Unit1/n11:83 0.7660715
27 Transmitter/Unit1/n11:86 Transmitter/Unit1/n11:85 0.4946429
28 Transmitter/Unit1/n11:59 Transmitter\/Unit1\/U20:A2 1
29 Transmitter/Unit1/n11:71 Transmitter/Unit1/n11:70 5.404464
30 Transmitter/Unit1/n11:71 Transmitter/Unit1/n11:59 0.5187501
31 Transmitter/Unit1/n11:72 Transmitter/Unit1/n11:71 0.5
32 Transmitter/Unit1/n11:70 Transmitter/Unit1/n11:69 0.5
33 Transmitter/Unit1/n11:69 Transmitter/Unit1/n11:68 0.7901785
34 Transmitter/Unit1/n11:67 Transmitter\/Unit1\/U4:A2 1
35 Transmitter/Unit1/n11:67 Transmitter/Unit1/n11:66 0.2825
36 Transmitter/Unit1/n11:68 Transmitter/Unit1/n11:67 0.5
37 Transmitter/Unit1/n11:68 Transmitter/Unit1/n11:65 3.8
38 Transmitter/Unit1/n11:64 Transmitter\/Unit1\/U21:A2 1
39 Transmitter/Unit1/n11:64 Transmitter/Unit1/n11:63 0.2825
40 Transmitter/Unit1/n11:65 Transmitter/Unit1/n11:64 0.5
41 Transmitter/Unit1/n11:65 Transmitter/Unit1/n11:62 8.118751
42 Transmitter/Unit1/n11:51 Transmitter\/Unit1\/U29:A2 1
43 Transmitter/Unit1/n11:51 Transmitter/Unit1/n11:50 0.2825
44 Transmitter/Unit1/n11:52 Transmitter/Unit1/n11:51 0.5
45 Transmitter/Unit1/n11:52 Transmitter/Unit1/n11:49 9.228572
46 Transmitter/Unit1/n11:61 Transmitter\/Unit1\/U23:A2 1
47 Transmitter/Unit1/n11:61 Transmitter/Unit1/n11:60 0.2825
48 Transmitter/Unit1/n11:62 Transmitter/Unit1/n11:61 0.5
49 Transmitter/Unit1/n11:48 Transmitter\/Unit1\/U28:A2 1
50 Transmitter/Unit1/n11:48 Transmitter/Unit1/n11:47 0.2825
51 Transmitter/Unit1/n11:49 Transmitter/Unit1/n11:48 0.5
52 Transmitter/Unit1/n11:49 Transmitter/Unit1/n11:46 3.504464
53 Transmitter/Unit1/n11:31 Transmitter/Unit1/n11:30 0.5
54 Transmitter/Unit1/n11:31 Transmitter/Unit1/n11:26 5.947322
55 Transmitter/Unit1/n11:30 Transmitter/Unit1/n11:29 0.4946429
56 Transmitter/Unit1/n11:28 Transmitter\/Unit1\/U24:A2 1
57 Transmitter/Unit1/n11:28 Transmitter/Unit1/n11:27 0.2825
58 Transmitter/Unit1/n11:29 Transmitter/Unit1/n11:28 0.5
59 Transmitter/Unit1/n11:26 Transmitter\/Unit1\/U22:A2 1
60 Transmitter/Unit1/n11:45 Transmitter\/Unit1\/U27:A2 1
61 Transmitter/Unit1/n11:45 Transmitter/Unit1/n11:44 6.466072
62 Transmitter/Unit1/n11:46 Transmitter/Unit1/n11:45 0.5
63 Transmitter/Unit1/n11:32 Transmitter/Unit1/n11:31 2.690179
64 Transmitter/Unit1/n11:33 Transmitter/Unit1/n11:32 0.5
65 Transmitter/Unit1/n11:44 Transmitter/Unit1/n11:43 0.5
66 Transmitter/Unit1/n11:43 Transmitter/Unit1/n11:42 2.394643
67 Transmitter/Unit1/n11:41 Transmitter/Unit1/n11:40 0.2714286
68 Transmitter/Unit1/n11:41 Transmitter/Unit1/n11:38 5.380358
69 Transmitter/Unit1/n11:42 Transmitter/Unit1/n11:41 0.5
70 Transmitter/Unit1/n11:38 Transmitter/Unit1/n11:37 0.5
71 Transmitter/Unit1/n11:37 Transmitter/Unit1/n11:36 2.147322
72 Transmitter/Unit1/n11:37 Transmitter/Unit1/n11:33 2.690179
73 Transmitter/Unit1/n11:39 Transmitter\/Unit1\/U25:A2 1
74 Transmitter/Unit1/n11:35 Transmitter\/Unit1\/U26:A2 1
75 Transmitter/Unit1/n11:35 Transmitter/Unit1/n11:34 0.2825
76 Transmitter/Unit1/n11:36 Transmitter/Unit1/n11:35 0.5
77 Transmitter/Unit1/n11:40 Transmitter/Unit1/n11:39 0.5187501
78 Transmitter/Unit1/n11:81 Transmitter/Unit1/n11:80 3.257143
79 Transmitter/Unit1/n11:80 Transmitter/Unit1/n11:79 0.2714286
80 Transmitter/Unit1/n11:79 Transmitter/Unit1/n11:78 2.985714
81 Transmitter/Unit1/n11:79 Transmitter/Unit1/n11:55 0.5187501
82 Transmitter/Unit1/n11:78 Transmitter/Unit1/n11:77 0.2714286
83 Transmitter/Unit1/n11:77 Transmitter/Unit1/n11:76 8.390179
84 Transmitter/Unit1/n11:73 Transmitter/Unit1/n11:72 1.604464
85 Transmitter/Unit1/n11:74 Transmitter/Unit1/n11:73 0.5428572

*END

*D_NET Transmitter/Unit1/n12 0.403005 //LENGTH 4.414 LUMPCC 0 DR

*CONN
*I Transmitter\/Unit1\/U38:Y O *L 0 *C 27.204 30.700
*I Transmitter\/Unit1\/U32:A1 I *L 0.483714 *C 29.940 29.484
*N Transmitter/Unit1/n12:2 *C 27.204 30.518
*N Transmitter/Unit1/n12:3 *C 29.940 29.498
*N Transmitter/Unit1/n12:4 *C 29.940 30.687
*N Transmitter/Unit1/n12:5 *C 29.927 30.700
*N Transmitter/Unit1/n12:6 *C 27.218 30.700
*N Transmitter/Unit1/n12:7 *C 27.204 30.688

*CAP
0 Transmitter\/Unit1\/U38:Y 0.001
1 Transmitter\/Unit1\/U32:A1 0.001
2 Transmitter/Unit1/n12:2 0.01355112
3 Transmitter/Unit1/n12:3 0.05352309
4 Transmitter/Unit1/n12:4 0.05495577
5 Transmitter/Unit1/n12:5 0.1358005
6 Transmitter/Unit1/n12:6 0.1358005
7 Transmitter/Unit1/n12:7 0.007374

*RES
0 Transmitter\/Unit1\/U38:Y Transmitter/Unit1/n12:7 1
1 Transmitter/Unit1/n12:3 Transmitter\/Unit1\/U32:A1 1
2 Transmitter/Unit1/n12:4 Transmitter/Unit1/n12:3 2.123214
3 Transmitter/Unit1/n12:5 Transmitter/Unit1/n12:4 0.5
4 Transmitter/Unit1/n12:7 Transmitter/Unit1/n12:6 0.5
5 Transmitter/Unit1/n12:7 Transmitter/Unit1/n12:2 0.2825
6 Transmitter/Unit1/n12:6 Transmitter/Unit1/n12:5 4.8375

*END

*D_NET Transmitter/Unit1/n13_CDR1 0.3475659 //LENGTH 3.262 LUMPCC 0 DR

*CONN
*I Transmitter\/Unit1\/U35:Y O *L 0 *C 29.940 26.900
*I Transmitter\/Unit1\/U32:A2 I *L 0.537547 *C 30.244 29.636
*N Transmitter/Unit1/n13_CDR1:2 *C 30.244 29.623
*N Transmitter/Unit1/n13_CDR1:3 *C 30.244 29.332
*N Transmitter/Unit1/n13_CDR1:4 *C 29.940 29.332
*N Transmitter/Unit1/n13_CDR1:5 *C 29.940 26.914

*CAP
0 Transmitter\/Unit1\/U35:Y 0.001
1 Transmitter\/Unit1\/U32:A2 0.001
2 Transmitter/Unit1/n13_CDR1:2 0.01497302
3 Transmitter/Unit1/n13_CDR1:3 0.03378354
4 Transmitter/Unit1/n13_CDR1:4 0.1573715
5 Transmitter/Unit1/n13_CDR1:5 0.1394379

*RES
0 Transmitter\/Unit1\/U35:Y Transmitter/Unit1/n13_CDR1:5 1
1 Transmitter/Unit1/n13_CDR1:2 Transmitter\/Unit1\/U32:A2 1
2 Transmitter/Unit1/n13_CDR1:5 Transmitter/Unit1/n13_CDR1:4 4.31875
3 Transmitter/Unit1/n13_CDR1:4 Transmitter/Unit1/n13_CDR1:3 0.5428572
4 Transmitter/Unit1/n13_CDR1:3 Transmitter/Unit1/n13_CDR1:2 0.5187501

*END

*D_NET Transmitter/Unit1/n14_CDR1 0.2288121 //LENGTH 2.020 LUMPCC 0 DR

*CONN
*I Transmitter\/Unit1\/U33:Y O *L 0 *C 31.004 30.548
*I Transmitter\/Unit1\/U32:A3 I *L 0.63651 *C 30.396 29.332
*N Transmitter/Unit1/n14_CDR1:2 *C 30.397 29.332
*N Transmitter/Unit1/n14_CDR1:3 *C 30.852 29.332
*N Transmitter/Unit1/n14_CDR1:4 *C 30.852 30.535
*N Transmitter/Unit1/n14_CDR1:5 *C 30.867 30.548

*CAP
0 Transmitter\/Unit1\/U33:Y 0.01574964
1 Transmitter\/Unit1\/U32:A3 0.001
2 Transmitter/Unit1/n14_CDR1:2 0.01809001
3 Transmitter/Unit1/n14_CDR1:3 0.1021343
4 Transmitter/Unit1/n14_CDR1:4 0.07816397
5 Transmitter/Unit1/n14_CDR1:5 0.01367424

*RES
0 Transmitter\/Unit1\/U33:Y Transmitter/Unit1/n14_CDR1:5 0.274
1 Transmitter/Unit1/n14_CDR1:2 Transmitter\/Unit1\/U32:A3 1
2 Transmitter/Unit1/n14_CDR1:5 Transmitter/Unit1/n14_CDR1:4 1
3 Transmitter/Unit1/n14_CDR1:4 Transmitter/Unit1/n14_CDR1:3 2.147322
4 Transmitter/Unit1/n14_CDR1:3 Transmitter/Unit1/n14_CDR1:2 0.8125

*END

*D_NET Transmitter/Unit1/n15 0.2959329 //LENGTH 2.725 LUMPCC 0 DR

*CONN
*I Transmitter\/Unit1\/U15:Y O *L 0 *C 30.050 27.977
*I Transmitter\/Unit1\/U35:A1 I *L 0.654877 *C 29.484 26.292
*N Transmitter/Unit1/n15:2 *C 29.484 26.292
*N Transmitter/Unit1/n15:3 *C 29.484 26.431
*N Transmitter/Unit1/n15:4 *C 29.498 26.444
*N Transmitter/Unit1/n15:5 *C 30.079 26.444
*N Transmitter/Unit1/n15:6 *C 30.092 26.457
*N Transmitter/Unit1/n15:7 *C 30.092 27.951
*N Transmitter/Unit1/n15:8 *C 30.092 27.964

*CAP
0 Transmitter\/Unit1\/U15:Y 0.009995295
1 Transmitter\/Unit1\/U35:A1 0.001
2 Transmitter/Unit1/n15:2 0.009741898
3 Transmitter/Unit1/n15:3 0.01117458
4 Transmitter/Unit1/n15:4 0.02986984
5 Transmitter/Unit1/n15:5 0.02986984
6 Transmitter/Unit1/n15:6 0.09803241
7 Transmitter/Unit1/n15:7 0.09832922
8 Transmitter/Unit1/n15:8 0.007919896

*RES
0 Transmitter\/Unit1\/U15:Y Transmitter/Unit1/n15:8 0.09166667
1 Transmitter/Unit1/n15:2 Transmitter\/Unit1\/U35:A1 1
2 Transmitter/Unit1/n15:3 Transmitter/Unit1/n15:2 0.2325
3 Transmitter/Unit1/n15:4 Transmitter/Unit1/n15:3 0.5
4 Transmitter/Unit1/n15:6 Transmitter/Unit1/n15:5 0.5
5 Transmitter/Unit1/n15:5 Transmitter/Unit1/n15:4 1.0375
6 Transmitter/Unit1/n15:8 Transmitter/Unit1/n15:7 1
7 Transmitter/Unit1/n15:7 Transmitter/Unit1/n15:6 2.666072

*END

*D_NET Transmitter/Unit1/n16 0.2293951 //LENGTH 2.159 LUMPCC 0 DR

*CONN
*I Transmitter\/Unit1\/U17:Y O *L 0 *C 29.484 27.812
*I Transmitter\/Unit1\/U35:A3 I *L 0.55484 *C 29.788 26.292
*N Transmitter/Unit1/n16:2 *C 29.788 26.306
*N Transmitter/Unit1/n16:3 *C 29.788 27.646
*N Transmitter/Unit1/n16:4 *C 29.774 27.660
*N Transmitter/Unit1/n16:5 *C 29.498 27.660
*N Transmitter/Unit1/n16:6 *C 29.484 27.660
*N Transmitter/Unit1/n16:7 *C 29.484 27.800

*CAP
0 Transmitter\/Unit1\/U17:Y 0.001
1 Transmitter\/Unit1\/U35:A3 0.001
2 Transmitter/Unit1/n16:2 0.0894293
3 Transmitter/Unit1/n16:3 0.09086198
4 Transmitter/Unit1/n16:4 0.01489758
5 Transmitter/Unit1/n16:5 0.01489758
6 Transmitter/Unit1/n16:6 0.009370677
7 Transmitter/Unit1/n16:7 0.007937998

*RES
0 Transmitter\/Unit1\/U17:Y Transmitter/Unit1/n16:7 1
1 Transmitter/Unit1/n16:2 Transmitter\/Unit1\/U35:A3 1
2 Transmitter/Unit1/n16:3 Transmitter/Unit1/n16:2 2.394643
3 Transmitter/Unit1/n16:4 Transmitter/Unit1/n16:3 0.5
4 Transmitter/Unit1/n16:6 Transmitter/Unit1/n16:5 0.5
5 Transmitter/Unit1/n16:5 Transmitter/Unit1/n16:4 0.4946429
6 Transmitter/Unit1/n16:7 Transmitter/Unit1/n16:6 0.2325

*END

*D_NET Transmitter/Unit1/n17 0.571947 //LENGTH 5.912 LUMPCC 0 DR

*CONN
*I Transmitter\/Unit1\/U16:Y O *L 0 *C 30.685 36.190
*I Transmitter\/Unit1\/U33:A2 I *L 0.559393 *C 31.308 31.308
*N Transmitter/Unit1/n17:2 *C 31.308 31.322
*N Transmitter/Unit1/n17:3 *C 31.308 35.855
*N Transmitter/Unit1/n17:4 *C 31.295 35.868
*N Transmitter/Unit1/n17:5 *C 30.713 35.868
*N Transmitter/Unit1/n17:6 *C 30.700 35.882
*N Transmitter/Unit1/n17:7 *C 30.700 36.159
*N Transmitter/Unit1/n17:8 *C 30.700 36.172

*CAP
0 Transmitter\/Unit1\/U16:Y 0.01111876
1 Transmitter\/Unit1\/U33:A2 0.001
2 Transmitter/Unit1/n17:2 0.2268125
3 Transmitter/Unit1/n17:3 0.2282452
4 Transmitter/Unit1/n17:4 0.03264061
5 Transmitter/Unit1/n17:5 0.03264061
6 Transmitter/Unit1/n17:6 0.01507454
7 Transmitter/Unit1/n17:7 0.01537136
8 Transmitter/Unit1/n17:8 0.009043364

*RES
0 Transmitter\/Unit1\/U16:Y Transmitter/Unit1/n17:8 0.09166668
1 Transmitter/Unit1/n17:2 Transmitter\/Unit1\/U33:A2 1
2 Transmitter/Unit1/n17:3 Transmitter/Unit1/n17:2 8.094644
3 Transmitter/Unit1/n17:4 Transmitter/Unit1/n17:3 0.5
4 Transmitter/Unit1/n17:6 Transmitter/Unit1/n17:5 0.5
5 Transmitter/Unit1/n17:5 Transmitter/Unit1/n17:4 1.0375
6 Transmitter/Unit1/n17:8 Transmitter/Unit1/n17:7 1
7 Transmitter/Unit1/n17:7 Transmitter/Unit1/n17:6 0.4946429

*END

*D_NET Transmitter/Unit1/n18_CDR1 0.9310192 //LENGTH 10.058 LUMPCC 0 DR

*CONN
*I Transmitter\/Unit1\/U34:Y O *L 0 *C 27.812 24.772
*I Transmitter\/Unit1\/U33:A4 I *L 0.540252 *C 31.004 31.308
*N Transmitter/Unit1/n18_CDR1:2 *C 31.004 31.295
*N Transmitter/Unit1/n18_CDR1:3 *C 31.004 25.546
*N Transmitter/Unit1/n18_CDR1:4 *C 30.991 25.532
*N Transmitter/Unit1/n18_CDR1:5 *C 27.826 25.532
*N Transmitter/Unit1/n18_CDR1:6 *C 27.812 25.518
*N Transmitter/Unit1/n18_CDR1:7 *C 27.812 24.786

*CAP
0 Transmitter\/Unit1\/U34:Y 0.001
1 Transmitter\/Unit1\/U33:A4 0.001
2 Transmitter/Unit1/n18_CDR1:2 0.2769362
3 Transmitter/Unit1/n18_CDR1:3 0.2783688
4 Transmitter/Unit1/n18_CDR1:4 0.1357722
5 Transmitter/Unit1/n18_CDR1:5 0.1357722
6 Transmitter/Unit1/n18_CDR1:6 0.05180128
7 Transmitter/Unit1/n18_CDR1:7 0.0503686

*RES
0 Transmitter\/Unit1\/U34:Y Transmitter/Unit1/n18_CDR1:7 1
1 Transmitter/Unit1/n18_CDR1:2 Transmitter\/Unit1\/U33:A4 1
2 Transmitter/Unit1/n18_CDR1:3 Transmitter/Unit1/n18_CDR1:2 10.26607
3 Transmitter/Unit1/n18_CDR1:4 Transmitter/Unit1/n18_CDR1:3 0.5
4 Transmitter/Unit1/n18_CDR1:6 Transmitter/Unit1/n18_CDR1:5 0.5
5 Transmitter/Unit1/n18_CDR1:5 Transmitter/Unit1/n18_CDR1:4 5.651786
6 Transmitter/Unit1/n18_CDR1:7 Transmitter/Unit1/n18_CDR1:6 1.308929

*END

*D_NET Transmitter/Unit1/n19 0.211899 //LENGTH 1.892 LUMPCC 0 DR

*CONN
*I Transmitter\/Unit1\/U10:Y O *L 0 *C 31.445 32.846
*I Transmitter\/Unit1\/U33:A1 I *L 0.654877 *C 31.460 31.156
*N Transmitter/Unit1/n19:2 *C 31.460 31.170
*N Transmitter/Unit1/n19:3 *C 31.460 32.815
*N Transmitter/Unit1/n19:4 *C 31.460 32.828

*CAP
0 Transmitter\/Unit1\/U10:Y 0.008688823
1 Transmitter\/Unit1\/U33:A1 0.001
2 Transmitter/Unit1/n19:2 0.09693362
3 Transmitter/Unit1/n19:3 0.09866311
4 Transmitter/Unit1/n19:4 0.006613425

*RES
0 Transmitter\/Unit1\/U10:Y Transmitter/Unit1/n19:4 0.09166668
1 Transmitter/Unit1/n19:2 Transmitter\/Unit1\/U33:A1 1
2 Transmitter/Unit1/n19:4 Transmitter/Unit1/n19:3 1
3 Transmitter/Unit1/n19:3 Transmitter/Unit1/n19:2 2.9375

*END

*D_NET Transmitter/Unit1/n20 0.1406025 //LENGTH 1.464 LUMPCC 0 DR

*CONN
*I Transmitter\/Unit1\/U8:Y O *L 0 *C 26.030 24.633
*I Transmitter\/Unit1\/U34:A4 I *L 0.42184 *C 26.748 24.620
*N Transmitter/Unit1/n20:2 *C 25.988 24.438
*N Transmitter/Unit1/n20:3 *C 26.748 24.438
*N Transmitter/Unit1/n20:4 *C 26.748 24.608
*N Transmitter/Unit1/n20:5 *C 26.735 24.620
*N Transmitter/Unit1/n20:6 *C 26.002 24.620
*N Transmitter/Unit1/n20:7 *C 25.988 24.608
*N Transmitter/Unit1/n20:8 *C 25.988 24.620

*CAP
0 Transmitter\/Unit1\/U8:Y 0.008622035
1 Transmitter\/Unit1\/U34:A4 0.001
2 Transmitter/Unit1/n20:2 0.01358309
3 Transmitter/Unit1/n20:3 0.01995288
4 Transmitter/Unit1/n20:4 0.01377576
5 Transmitter/Unit1/n20:5 0.03399333
6 Transmitter/Unit1/n20:6 0.03399333
7 Transmitter/Unit1/n20:7 0.009135472
8 Transmitter/Unit1/n20:8 0.006546637

*RES
0 Transmitter\/Unit1\/U8:Y Transmitter/Unit1/n20:8 0.09166668
1 Transmitter/Unit1/n20:4 Transmitter\/Unit1\/U34:A4 1
2 Transmitter/Unit1/n20:4 Transmitter/Unit1/n20:3 0.2825
3 Transmitter/Unit1/n20:5 Transmitter/Unit1/n20:4 0.5
4 Transmitter/Unit1/n20:7 Transmitter/Unit1/n20:6 0.5
5 Transmitter/Unit1/n20:7 Transmitter/Unit1/n20:2 0.2825
6 Transmitter/Unit1/n20:6 Transmitter/Unit1/n20:5 1.308929
7 Transmitter/Unit1/n20:8 Transmitter/Unit1/n20:7 1

*END

*D_NET Transmitter/Unit1/n21 0.5192716 //LENGTH 5.284 LUMPCC 0 DR

*CONN
*I Transmitter\/Unit1\/U7:Y O *L 0 *C 24.055 26.128
*I Transmitter\/Unit1\/U34:A3 I *L 0.426515 *C 26.900 24.316
*N Transmitter/Unit1/n21:2 *C 24.012 25.958
*N Transmitter/Unit1/n21:3 *C 26.900 24.329
*N Transmitter/Unit1/n21:4 *C 26.900 26.127
*N Transmitter/Unit1/n21:5 *C 26.887 26.140
*N Transmitter/Unit1/n21:6 *C 24.026 26.140
*N Transmitter/Unit1/n21:7 *C 24.012 26.128
*N Transmitter/Unit1/n21:8 *C 24.012 26.140

*CAP
0 Transmitter\/Unit1\/U7:Y 0.01454354
1 Transmitter\/Unit1\/U34:A3 0.001
2 Transmitter/Unit1/n21:2 0.01325965
3 Transmitter/Unit1/n21:3 0.1034525
4 Transmitter/Unit1/n21:4 0.1048852
5 Transmitter/Unit1/n21:5 0.1304253
6 Transmitter/Unit1/n21:6 0.1304253
7 Transmitter/Unit1/n21:7 0.008812035
8 Transmitter/Unit1/n21:8 0.01246814

*RES
0 Transmitter\/Unit1\/U7:Y Transmitter/Unit1/n21:8 0.09166668
1 Transmitter/Unit1/n21:3 Transmitter\/Unit1\/U34:A3 1
2 Transmitter/Unit1/n21:4 Transmitter/Unit1/n21:3 3.208929
3 Transmitter/Unit1/n21:5 Transmitter/Unit1/n21:4 0.5
4 Transmitter/Unit1/n21:7 Transmitter/Unit1/n21:6 0.5
5 Transmitter/Unit1/n21:7 Transmitter/Unit1/n21:2 0.2825
6 Transmitter/Unit1/n21:6 Transmitter/Unit1/n21:5 5.108929
7 Transmitter/Unit1/n21:8 Transmitter/Unit1/n21:7 1

*END

*D_NET Transmitter/Unit1/n22 0.4200238 //LENGTH 4.544 LUMPCC 0 DR

*CONN
*I Transmitter\/Unit1\/U9:Y O *L 0 *C 26.250 21.289
*I Transmitter\/Unit1\/U34:A2 I *L 0.426573 *C 27.052 24.620
*N Transmitter/Unit1/n22:2 *C 27.052 24.607
*N Transmitter/Unit1/n22:3 *C 27.052 23.114
*N Transmitter/Unit1/n22:4 *C 27.039 23.100
*N Transmitter/Unit1/n22:5 *C 26.306 23.100
*N Transmitter/Unit1/n22:6 *C 26.292 23.087
*N Transmitter/Unit1/n22:7 *C 26.292 21.290
*N Transmitter/Unit1/n22:8 *C 26.292 21.276

*CAP
0 Transmitter\/Unit1\/U9:Y 0.009926216
1 Transmitter\/Unit1\/U34:A2 0.001
2 Transmitter/Unit1/n22:2 0.0998334
3 Transmitter/Unit1/n22:3 0.1012661
4 Transmitter/Unit1/n22:4 0.02595409
5 Transmitter/Unit1/n22:5 0.02595409
6 Transmitter/Unit1/n22:6 0.07397112
7 Transmitter/Unit1/n22:7 0.07426794
8 Transmitter/Unit1/n22:8 0.007850818

*RES
0 Transmitter\/Unit1\/U9:Y Transmitter/Unit1/n22:8 0.09166668
1 Transmitter/Unit1/n22:2 Transmitter\/Unit1\/U34:A2 1
2 Transmitter/Unit1/n22:3 Transmitter/Unit1/n22:2 2.666071
3 Transmitter/Unit1/n22:4 Transmitter/Unit1/n22:3 0.5
4 Transmitter/Unit1/n22:6 Transmitter/Unit1/n22:5 0.5
5 Transmitter/Unit1/n22:5 Transmitter/Unit1/n22:4 1.308929
6 Transmitter/Unit1/n22:8 Transmitter/Unit1/n22:7 1
7 Transmitter/Unit1/n22:7 Transmitter/Unit1/n22:6 3.208929

*END

*D_NET Transmitter/Unit1/n23 1.977892 //LENGTH 20.060 LUMPCC 0 DR

*CONN
*I Transmitter\/Unit1\/U45:Y O *L 0 *C 23.100 29.636
*I Transmitter\/Unit1\/U40:A2 I *L 0.46235 *C 25.988 29.484
*I Transmitter\/Unit1\/U9:A1 I *L 0.954271 *C 27.660 21.428
*I Transmitter\/Unit1\/U36:A2 I *L 0.529633 *C 27.812 26.140
*I Transmitter\/Unit1\/U37:A1 I *L 0.545591 *C 28.876 29.788
*I Transmitter\/Unit1\/U44:A4 I *L 0.504436 *C 23.439 31.176
*N Transmitter/Unit1/n23:6 *C 23.404 31.156
*N Transmitter/Unit1/n23:7 *C 23.404 31.143
*N Transmitter/Unit1/n23:8 *C 28.876 29.787
*N Transmitter/Unit1/n23:9 *C 28.876 27.674
*N Transmitter/Unit1/n23:10 *C 28.863 27.660
*N Transmitter/Unit1/n23:11 *C 27.811 26.140
*N Transmitter/Unit1/n23:12 *C 27.660 21.442
*N Transmitter/Unit1/n23:13 *C 27.660 26.140
*N Transmitter/Unit1/n23:14 *C 27.660 27.646
*N Transmitter/Unit1/n23:15 *C 27.660 27.660
*N Transmitter/Unit1/n23:16 *C 26.154 27.660
*N Transmitter/Unit1/n23:17 *C 26.140 27.674
*N Transmitter/Unit1/n23:18 *C 25.988 29.483
*N Transmitter/Unit1/n23:19 *C 25.988 28.890
*N Transmitter/Unit1/n23:20 *C 25.988 28.876
*N Transmitter/Unit1/n23:21 *C 26.128 28.876
*N Transmitter/Unit1/n23:22 *C 26.140 28.863
*N Transmitter/Unit1/n23:23 *C 26.127 28.876
*N Transmitter/Unit1/n23:24 *C 24.329 28.876
*N Transmitter/Unit1/n23:25 *C 24.316 28.890
*N Transmitter/Unit1/n23:26 *C 24.316 29.774
*N Transmitter/Unit1/n23:27 *C 24.303 29.788
*N Transmitter/Unit1/n23:28 *C 23.418 29.788
*N Transmitter/Unit1/n23:29 *C 23.404 29.802
*N Transmitter/Unit1/n23:30 *C 23.100 29.788
*N Transmitter/Unit1/n23:31 *C 23.100 29.649

*CAP
0 Transmitter\/Unit1\/U45:Y 0.001
1 Transmitter\/Unit1\/U40:A2 0.001
2 Transmitter\/Unit1\/U9:A1 0.001
3 Transmitter\/Unit1\/U36:A2 0.001
4 Transmitter\/Unit1\/U37:A1 0.001
5 Transmitter\/Unit1\/U44:A4 0.01009343
6 Transmitter/Unit1/n23:6 0.008018035
7 Transmitter/Unit1/n23:7 0.07092877
8 Transmitter/Unit1/n23:8 0.09760503
9 Transmitter/Unit1/n23:9 0.09903771
10 Transmitter/Unit1/n23:10 0.05343049
11 Transmitter/Unit1/n23:11 0.0048859
12 Transmitter/Unit1/n23:12 0.3045777
13 Transmitter/Unit1/n23:13 0.4237661
14 Transmitter/Unit1/n23:14 0.1043205
15 Transmitter/Unit1/n23:15 0.1226995
16 Transmitter/Unit1/n23:16 0.06689736
17 Transmitter/Unit1/n23:17 0.0491063
18 Transmitter/Unit1/n23:18 0.04475038
19 Transmitter/Unit1/n23:19 0.04601011
20 Transmitter/Unit1/n23:20 0.009558897
21 Transmitter/Unit1/n23:21 0.009559443
22 Transmitter/Unit1/n23:22 0.04673516
23 Transmitter/Unit1/n23:23 0.06296581
24 Transmitter/Unit1/n23:24 0.06296581
25 Transmitter/Unit1/n23:25 0.03552473
26 Transmitter/Unit1/n23:26 0.03552421
27 Transmitter/Unit1/n23:27 0.04187746
28 Transmitter/Unit1/n23:28 0.04187691
29 Transmitter/Unit1/n23:29 0.08542074
30 Transmitter/Unit1/n23:30 0.02667469
31 Transmitter/Unit1/n23:31 0.008081021

*RES
0 Transmitter\/Unit1\/U45:Y Transmitter/Unit1/n23:31 1
1 Transmitter/Unit1/n23:9 Transmitter/Unit1/n23:8 3.774108
2 Transmitter/Unit1/n23:10 Transmitter/Unit1/n23:9 0.5
3 Transmitter/Unit1/n23:8 Transmitter\/Unit1\/U37:A1 1
4 Transmitter/Unit1/n23:11 Transmitter\/Unit1\/U36:A2 1
5 Transmitter/Unit1/n23:14 Transmitter/Unit1/n23:13 2.690179
6 Transmitter/Unit1/n23:15 Transmitter/Unit1/n23:14 0.5
7 Transmitter/Unit1/n23:15 Transmitter/Unit1/n23:10 2.147322
8 Transmitter/Unit1/n23:12 Transmitter\/Unit1\/U9:A1 1
9 Transmitter/Unit1/n23:16 Transmitter/Unit1/n23:15 2.690179
10 Transmitter/Unit1/n23:17 Transmitter/Unit1/n23:16 0.5
11 Transmitter/Unit1/n23:21 Transmitter/Unit1/n23:20 0.2325
12 Transmitter/Unit1/n23:22 Transmitter/Unit1/n23:21 0.5
13 Transmitter/Unit1/n23:22 Transmitter/Unit1/n23:17 2.123214
14 Transmitter/Unit1/n23:19 Transmitter/Unit1/n23:18 1.059822
15 Transmitter/Unit1/n23:20 Transmitter/Unit1/n23:19 0.5
16 Transmitter/Unit1/n23:18 Transmitter\/Unit1\/U40:A2 1
17 Transmitter/Unit1/n23:6 Transmitter\/Unit1\/U44:A4 0.09166668
18 Transmitter/Unit1/n23:7 Transmitter/Unit1/n23:6 1
19 Transmitter/Unit1/n23:23 Transmitter/Unit1/n23:22 0.5
20 Transmitter/Unit1/n23:25 Transmitter/Unit1/n23:24 0.5
21 Transmitter/Unit1/n23:24 Transmitter/Unit1/n23:23 3.208929
22 Transmitter/Unit1/n23:27 Transmitter/Unit1/n23:26 0.5
23 Transmitter/Unit1/n23:26 Transmitter/Unit1/n23:25 1.580357
24 Transmitter/Unit1/n23:29 Transmitter/Unit1/n23:28 0.5
25 Transmitter/Unit1/n23:29 Transmitter/Unit1/n23:7 2.394643
26 Transmitter/Unit1/n23:28 Transmitter/Unit1/n23:27 1.580357
27 Transmitter/Unit1/n23:31 Transmitter/Unit1/n23:30 0.2473214
28 Transmitter/Unit1/n23:30 Transmitter/Unit1/n23:29 0.5428572
29 Transmitter/Unit1/n23:13 Transmitter/Unit1/n23:12 8.390179
30 Transmitter/Unit1/n23:13 Transmitter/Unit1/n23:11 0.2696429

*END

*D_NET Transmitter/Unit1/n24 2.109941 //LENGTH 24.433 LUMPCC 0 DR

*CONN
*I Transmitter\/Unit1\/U47:Y O *L 0 *C 22.188 27.812
*I Transmitter\/Unit1\/U36:A1 I *L 0.592288 *C 27.964 26.292
*I Transmitter\/Unit1\/U15:A1 I *L 0.954271 *C 31.460 28.116
*I Transmitter\/Unit1\/U10:A1 I *L 0.954271 *C 32.828 32.676
*I Transmitter\/Unit1\/U7:A1 I *L 0.954271 *C 22.644 25.988
*I Transmitter\/Unit1\/U41:A2 I *L 0.46235 *C 24.620 27.964
*I Transmitter\/Unit1\/U46:A2 I *L 0.529633 *C 24.772 29.484
*N Transmitter/Unit1/n24:7 *C 24.772 29.471
*N Transmitter/Unit1/n24:8 *C 24.772 28.876
*N Transmitter/Unit1/n24:9 *C 24.620 28.876
*N Transmitter/Unit1/n24:10 *C 24.620 27.964
*N Transmitter/Unit1/n24:11 *C 24.620 27.674
*N Transmitter/Unit1/n24:12 *C 24.607 27.660
*N Transmitter/Unit1/n24:13 *C 22.644 26.002
*N Transmitter/Unit1/n24:14 *C 32.828 32.663
*N Transmitter/Unit1/n24:15 *C 32.828 32.524
*N Transmitter/Unit1/n24:16 *C 32.980 32.524
*N Transmitter/Unit1/n24:17 *C 32.980 28.282
*N Transmitter/Unit1/n24:18 *C 32.967 28.268
*N Transmitter/Unit1/n24:19 *C 31.474 28.268
*N Transmitter/Unit1/n24:20 *C 31.460 28.256
*N Transmitter/Unit1/n24:21 *C 31.460 28.115
*N Transmitter/Unit1/n24:22 *C 31.460 26.762
*N Transmitter/Unit1/n24:23 *C 31.447 26.748
*N Transmitter/Unit1/n24:24 *C 27.964 26.306
*N Transmitter/Unit1/n24:25 *C 27.964 26.735
*N Transmitter/Unit1/n24:26 *C 27.964 26.748
*N Transmitter/Unit1/n24:27 *C 22.658 26.748
*N Transmitter/Unit1/n24:28 *C 22.644 26.748
*N Transmitter/Unit1/n24:29 *C 22.644 27.646
*N Transmitter/Unit1/n24:30 *C 22.644 27.660
*N Transmitter/Unit1/n24:31 *C 22.201 27.660
*N Transmitter/Unit1/n24:32 *C 22.188 27.660
*N Transmitter/Unit1/n24:33 *C 22.188 27.800

*CAP
0 Transmitter\/Unit1\/U47:Y 0.001
1 Transmitter\/Unit1\/U36:A1 0.001
2 Transmitter\/Unit1\/U15:A1 0.001
3 Transmitter\/Unit1\/U10:A1 0.001
4 Transmitter\/Unit1\/U7:A1 0.001
5 Transmitter\/Unit1\/U41:A2 0.001
6 Transmitter\/Unit1\/U46:A2 0.001
7 Transmitter/Unit1/n24:7 0.0429687
8 Transmitter/Unit1/n24:8 0.05542278
9 Transmitter/Unit1/n24:9 0.07332882
10 Transmitter/Unit1/n24:10 0.08574981
11 Transmitter/Unit1/n24:11 0.0223299
12 Transmitter/Unit1/n24:12 0.08470524
13 Transmitter/Unit1/n24:13 0.03115752
14 Transmitter/Unit1/n24:14 0.007388272
15 Transmitter/Unit1/n24:15 0.01968761
16 Transmitter/Unit1/n24:16 0.2001634
17 Transmitter/Unit1/n24:17 0.1892967
18 Transmitter/Unit1/n24:18 0.06357717
19 Transmitter/Unit1/n24:19 0.06357717
20 Transmitter/Unit1/n24:20 0.009271922
21 Transmitter/Unit1/n24:21 0.07043999
22 Transmitter/Unit1/n24:22 0.06022853
23 Transmitter/Unit1/n24:23 0.1331946
24 Transmitter/Unit1/n24:24 0.02436618
25 Transmitter/Unit1/n24:25 0.02579886
26 Transmitter/Unit1/n24:26 0.3531246
27 Transmitter/Unit1/n24:27 0.2175578
28 Transmitter/Unit1/n24:28 0.07693253
29 Transmitter/Unit1/n24:29 0.04197011
30 Transmitter/Unit1/n24:30 0.1061493
31 Transmitter/Unit1/n24:31 0.01907185
32 Transmitter/Unit1/n24:32 0.01345733
33 Transmitter/Unit1/n24:33 0.01202465

*RES
0 Transmitter\/Unit1\/U47:Y Transmitter/Unit1/n24:33 1
1 Transmitter/Unit1/n24:20 Transmitter/Unit1/n24:19 0.5
2 Transmitter/Unit1/n24:19 Transmitter/Unit1/n24:18 2.666071
3 Transmitter/Unit1/n24:17 Transmitter/Unit1/n24:16 7.575894
4 Transmitter/Unit1/n24:18 Transmitter/Unit1/n24:17 0.5
5 Transmitter/Unit1/n24:14 Transmitter\/Unit1\/U10:A1 1
6 Transmitter/Unit1/n24:21 Transmitter\/Unit1\/U15:A1 1
7 Transmitter/Unit1/n24:21 Transmitter/Unit1/n24:20 0.2341667
8 Transmitter/Unit1/n24:22 Transmitter/Unit1/n24:21 2.416964
9 Transmitter/Unit1/n24:23 Transmitter/Unit1/n24:22 0.5
10 Transmitter/Unit1/n24:25 Transmitter/Unit1/n24:24 0.7660714
11 Transmitter/Unit1/n24:26 Transmitter/Unit1/n24:25 0.5
12 Transmitter/Unit1/n24:26 Transmitter/Unit1/n24:23 6.21875
13 Transmitter/Unit1/n24:24 Transmitter\/Unit1\/U36:A1 1
14 Transmitter/Unit1/n24:7 Transmitter\/Unit1\/U46:A2 1
15 Transmitter/Unit1/n24:10 Transmitter\/Unit1\/U41:A2 1
16 Transmitter/Unit1/n24:10 Transmitter/Unit1/n24:9 1.628572
17 Transmitter/Unit1/n24:11 Transmitter/Unit1/n24:10 0.5187501
18 Transmitter/Unit1/n24:12 Transmitter/Unit1/n24:11 0.5
19 Transmitter/Unit1/n24:29 Transmitter/Unit1/n24:28 1.604464
20 Transmitter/Unit1/n24:30 Transmitter/Unit1/n24:29 0.5
21 Transmitter/Unit1/n24:30 Transmitter/Unit1/n24:12 3.504464
22 Transmitter/Unit1/n24:28 Transmitter/Unit1/n24:27 0.5
23 Transmitter/Unit1/n24:28 Transmitter/Unit1/n24:13 1.333036
24 Transmitter/Unit1/n24:27 Transmitter/Unit1/n24:26 9.475893
25 Transmitter/Unit1/n24:13 Transmitter\/Unit1\/U7:A1 1
26 Transmitter/Unit1/n24:32 Transmitter/Unit1/n24:31 0.5
27 Transmitter/Unit1/n24:31 Transmitter/Unit1/n24:30 0.7901787
28 Transmitter/Unit1/n24:33 Transmitter/Unit1/n24:32 0.2325
29 Transmitter/Unit1/n24:9 Transmitter/Unit1/n24:8 0.2714286
30 Transmitter/Unit1/n24:8 Transmitter/Unit1/n24:7 1.061607
31 Transmitter/Unit1/n24:15 Transmitter/Unit1/n24:14 0.2473214
32 Transmitter/Unit1/n24:16 Transmitter/Unit1/n24:15 0.2714286

*END

*D_NET Transmitter/Unit1/n25 2.138319 //LENGTH 22.348 LUMPCC 0 DR

*CONN
*I Transmitter\/Unit1\/U48:Y O *L 0 *C 27.812 29.636
*I Transmitter\/Unit1\/U42:A2 I *L 0.529633 *C 25.836 27.964
*I Transmitter\/Unit1\/U8:A1 I *L 0.954271 *C 24.620 24.772
*I Transmitter\/Unit1\/U46:A1 I *L 0.592288 *C 24.620 29.636
*I Transmitter\/Unit1\/U16:A1 I *L 0.954271 *C 32.068 36.020
*I Transmitter\/Unit1\/U37:A2 I *L 0.46235 *C 29.028 29.484
*N Transmitter/Unit1/n25:6 *C 29.028 29.498
*N Transmitter/Unit1/n25:7 *C 32.068 36.007
*N Transmitter/Unit1/n25:8 *C 32.068 35.578
*N Transmitter/Unit1/n25:9 *C 32.055 35.564
*N Transmitter/Unit1/n25:10 *C 29.346 35.564
*N Transmitter/Unit1/n25:11 *C 29.332 35.550
*N Transmitter/Unit1/n25:12 *C 29.332 31.612
*N Transmitter/Unit1/n25:13 *C 29.180 31.612
*N Transmitter/Unit1/n25:14 *C 29.180 29.940
*N Transmitter/Unit1/n25:15 *C 29.028 29.940
*N Transmitter/Unit1/n25:16 *C 27.812 29.940
*N Transmitter/Unit1/n25:17 *C 24.620 29.623
*N Transmitter/Unit1/n25:18 *C 24.620 24.786
*N Transmitter/Unit1/n25:19 *C 24.620 25.532
*N Transmitter/Unit1/n25:20 *C 24.468 25.532
*N Transmitter/Unit1/n25:21 *C 24.468 29.180
*N Transmitter/Unit1/n25:22 *C 24.620 29.194
*N Transmitter/Unit1/n25:23 *C 24.634 29.180
*N Transmitter/Unit1/n25:24 *C 25.836 27.978
*N Transmitter/Unit1/n25:25 *C 25.836 29.167
*N Transmitter/Unit1/n25:26 *C 25.836 29.180
*N Transmitter/Unit1/n25:27 *C 27.799 29.180
*N Transmitter/Unit1/n25:28 *C 27.812 29.194
*N Transmitter/Unit1/n25:29 *C 27.812 29.636

*CAP
0 Transmitter\/Unit1\/U48:Y 0.001
1 Transmitter\/Unit1\/U42:A2 0.001
2 Transmitter\/Unit1\/U8:A1 0.001
3 Transmitter\/Unit1\/U46:A1 0.001
4 Transmitter\/Unit1\/U16:A1 0.001
5 Transmitter\/Unit1\/U37:A2 0.001
6 Transmitter/Unit1/n25:6 0.02825284
7 Transmitter/Unit1/n25:7 0.0206117
8 Transmitter/Unit1/n25:8 0.02204437
9 Transmitter/Unit1/n25:9 0.1228162
10 Transmitter/Unit1/n25:10 0.1228162
11 Transmitter/Unit1/n25:11 0.1788321
12 Transmitter/Unit1/n25:12 0.1897285
13 Transmitter/Unit1/n25:13 0.1113458
14 Transmitter/Unit1/n25:14 0.1105368
15 Transmitter/Unit1/n25:15 0.09335707
16 Transmitter/Unit1/n25:16 0.07240963
17 Transmitter/Unit1/n25:17 0.02906744
18 Transmitter/Unit1/n25:18 0.03634368
19 Transmitter/Unit1/n25:19 0.04859001
20 Transmitter/Unit1/n25:20 0.2040538
21 Transmitter/Unit1/n25:21 0.204363
22 Transmitter/Unit1/n25:22 0.03925071
23 Transmitter/Unit1/n25:23 0.05363103
24 Transmitter/Unit1/n25:24 0.06427243
25 Transmitter/Unit1/n25:25 0.06570511
26 Transmitter/Unit1/n25:26 0.1498473
27 Transmitter/Unit1/n25:27 0.09384402
28 Transmitter/Unit1/n25:28 0.0266031
29 Transmitter/Unit1/n25:29 0.04399587

*RES
0 Transmitter\/Unit1\/U48:Y Transmitter/Unit1/n25:29 1
1 Transmitter/Unit1/n25:11 Transmitter/Unit1/n25:10 0.5
2 Transmitter/Unit1/n25:10 Transmitter/Unit1/n25:9 4.8375
3 Transmitter/Unit1/n25:8 Transmitter/Unit1/n25:7 0.7660714
4 Transmitter/Unit1/n25:9 Transmitter/Unit1/n25:8 0.5
5 Transmitter/Unit1/n25:7 Transmitter\/Unit1\/U16:A1 1
6 Transmitter/Unit1/n25:6 Transmitter\/Unit1\/U37:A2 1
7 Transmitter/Unit1/n25:29 Transmitter/Unit1/n25:28 0.7901786
8 Transmitter/Unit1/n25:29 Transmitter/Unit1/n25:16 0.5428572
9 Transmitter/Unit1/n25:28 Transmitter/Unit1/n25:27 0.5
10 Transmitter/Unit1/n25:27 Transmitter/Unit1/n25:26 3.504465
11 Transmitter/Unit1/n25:25 Transmitter/Unit1/n25:24 2.123214
12 Transmitter/Unit1/n25:26 Transmitter/Unit1/n25:25 0.5
13 Transmitter/Unit1/n25:26 Transmitter/Unit1/n25:23 2.147322
14 Transmitter/Unit1/n25:24 Transmitter\/Unit1\/U42:A2 1
15 Transmitter/Unit1/n25:17 Transmitter\/Unit1\/U46:A1 1
16 Transmitter/Unit1/n25:22 Transmitter/Unit1/n25:21 0.2714286
17 Transmitter/Unit1/n25:22 Transmitter/Unit1/n25:17 0.7660714
18 Transmitter/Unit1/n25:23 Transmitter/Unit1/n25:22 0.5
19 Transmitter/Unit1/n25:18 Transmitter\/Unit1\/U8:A1 1
20 Transmitter/Unit1/n25:20 Transmitter/Unit1/n25:19 0.2714286
21 Transmitter/Unit1/n25:19 Transmitter/Unit1/n25:18 1.333036
22 Transmitter/Unit1/n25:21 Transmitter/Unit1/n25:20 6.514286
23 Transmitter/Unit1/n25:16 Transmitter/Unit1/n25:15 2.171429
24 Transmitter/Unit1/n25:15 Transmitter/Unit1/n25:14 0.2714286
25 Transmitter/Unit1/n25:15 Transmitter/Unit1/n25:6 0.7901786
26 Transmitter/Unit1/n25:14 Transmitter/Unit1/n25:13 2.985714
27 Transmitter/Unit1/n25:13 Transmitter/Unit1/n25:12 0.2714286
28 Transmitter/Unit1/n25:12 Transmitter/Unit1/n25:11 7.033036

*END

*D_NET Transmitter/Unit1/n26 0.1160101 //LENGTH 1.404 LUMPCC 0 DR

*CONN
*I Transmitter\/Unit1\/U14:Y O *L 0 *C 30.396 31.156
*I Transmitter\/Unit1\/U33:A3 I *L 0.55484 *C 31.156 31.156
*N Transmitter/Unit1/n26:2 *C 31.156 31.156
*N Transmitter/Unit1/n26:3 *C 31.156 31.296
*N Transmitter/Unit1/n26:4 *C 31.143 31.308
*N Transmitter/Unit1/n26:5 *C 30.410 31.308
*N Transmitter/Unit1/n26:6 *C 30.396 31.296
*N Transmitter/Unit1/n26:7 *C 30.396 31.156

*CAP
0 Transmitter\/Unit1\/U14:Y 0.001
1 Transmitter\/Unit1\/U33:A3 0.001
2 Transmitter/Unit1/n26:2 0.01383319
3 Transmitter/Unit1/n26:3 0.01526587
4 Transmitter/Unit1/n26:4 0.03423315
5 Transmitter/Unit1/n26:5 0.03423315
6 Transmitter/Unit1/n26:6 0.008938703
7 Transmitter/Unit1/n26:7 0.007506025

*RES
0 Transmitter\/Unit1\/U14:Y Transmitter/Unit1/n26:7 1
1 Transmitter/Unit1/n26:2 Transmitter\/Unit1\/U33:A3 1
2 Transmitter/Unit1/n26:3 Transmitter/Unit1/n26:2 0.2325
3 Transmitter/Unit1/n26:4 Transmitter/Unit1/n26:3 0.5
4 Transmitter/Unit1/n26:6 Transmitter/Unit1/n26:5 0.5
5 Transmitter/Unit1/n26:5 Transmitter/Unit1/n26:4 1.308929
6 Transmitter/Unit1/n26:7 Transmitter/Unit1/n26:6 0.2325

*END

*D_NET Transmitter/Unit1/n27 0.2952205 //LENGTH 2.872 LUMPCC 0 DR

*CONN
*I Transmitter\/Unit1\/U12:Y O *L 0 *C 26.639 26.128
*I Transmitter\/Unit1\/U34:A1 I *L 0.508972 *C 27.204 24.316
*N Transmitter/Unit1/n27:2 *C 27.204 24.329
*N Transmitter/Unit1/n27:3 *C 27.204 25.518
*N Transmitter/Unit1/n27:4 *C 27.191 25.532
*N Transmitter/Unit1/n27:5 *C 26.610 25.532
*N Transmitter/Unit1/n27:6 *C 26.596 25.546
*N Transmitter/Unit1/n27:7 *C 26.596 26.127
*N Transmitter/Unit1/n27:8 *C 26.596 26.140

*CAP
0 Transmitter\/Unit1\/U12:Y 0.01121874
1 Transmitter\/Unit1\/U34:A1 0.001
2 Transmitter/Unit1/n27:2 0.07049578
3 Transmitter/Unit1/n27:3 0.07192846
4 Transmitter/Unit1/n27:4 0.03291215
5 Transmitter/Unit1/n27:5 0.03291215
6 Transmitter/Unit1/n27:6 0.03265651
7 Transmitter/Unit1/n27:7 0.03295333
8 Transmitter/Unit1/n27:8 0.009143341

*RES
0 Transmitter\/Unit1\/U12:Y Transmitter/Unit1/n27:8 0.09166667
1 Transmitter/Unit1/n27:2 Transmitter\/Unit1\/U34:A1 1
2 Transmitter/Unit1/n27:3 Transmitter/Unit1/n27:2 2.123214
3 Transmitter/Unit1/n27:4 Transmitter/Unit1/n27:3 0.5
4 Transmitter/Unit1/n27:6 Transmitter/Unit1/n27:5 0.5
5 Transmitter/Unit1/n27:5 Transmitter/Unit1/n27:4 1.0375
6 Transmitter/Unit1/n27:8 Transmitter/Unit1/n27:7 1
7 Transmitter/Unit1/n27:7 Transmitter/Unit1/n27:6 1.0375

*END

*D_NET Transmitter/Unit1/n28 0.3042711 //LENGTH 3.176 LUMPCC 0 DR

*CONN
*I Transmitter\/Unit1\/U11:Y O *L 0 *C 30.809 24.633
*I Transmitter\/Unit1\/U35:A2 I *L 0.559393 *C 29.636 26.140
*N Transmitter/Unit1/n28:2 *C 29.636 26.127
*N Transmitter/Unit1/n28:3 *C 29.636 25.242
*N Transmitter/Unit1/n28:4 *C 29.649 25.228
*N Transmitter/Unit1/n28:5 *C 30.838 25.228
*N Transmitter/Unit1/n28:6 *C 30.852 25.215
*N Transmitter/Unit1/n28:7 *C 30.852 24.634
*N Transmitter/Unit1/n28:8 *C 30.852 24.620

*CAP
0 Transmitter\/Unit1\/U11:Y 0.01056102
1 Transmitter\/Unit1\/U35:A2 0.001
2 Transmitter/Unit1/n28:2 0.04760843
3 Transmitter/Unit1/n28:3 0.04904111
4 Transmitter/Unit1/n28:4 0.06025729
5 Transmitter/Unit1/n28:5 0.06025729
6 Transmitter/Unit1/n28:6 0.03338175
7 Transmitter/Unit1/n28:7 0.03367857
8 Transmitter/Unit1/n28:8 0.008485625

*RES
0 Transmitter\/Unit1\/U11:Y Transmitter/Unit1/n28:8 0.09166668
1 Transmitter/Unit1/n28:2 Transmitter\/Unit1\/U35:A2 1
2 Transmitter/Unit1/n28:3 Transmitter/Unit1/n28:2 1.580357
3 Transmitter/Unit1/n28:4 Transmitter/Unit1/n28:3 0.5
4 Transmitter/Unit1/n28:6 Transmitter/Unit1/n28:5 0.5
5 Transmitter/Unit1/n28:5 Transmitter/Unit1/n28:4 2.123214
6 Transmitter/Unit1/n28:8 Transmitter/Unit1/n28:7 1
7 Transmitter/Unit1/n28:7 Transmitter/Unit1/n28:6 1.0375

*END

*D_NET Transmitter/Unit1/n29 0.2334934 //LENGTH 2.396 LUMPCC 0 DR

*CONN
*I Transmitter\/Unit1\/U13:Y O *L 0 *C 30.287 24.633
*I Transmitter\/Unit1\/U35:A4 I *L 0.540252 *C 29.940 26.140
*N Transmitter/Unit1/n29:2 *C 29.940 25.958
*N Transmitter/Unit1/n29:3 *C 29.940 26.128
*N Transmitter/Unit1/n29:4 *C 29.954 26.140
*N Transmitter/Unit1/n29:5 *C 30.231 26.140
*N Transmitter/Unit1/n29:6 *C 30.244 26.127
*N Transmitter/Unit1/n29:7 *C 30.244 24.634
*N Transmitter/Unit1/n29:8 *C 30.244 24.620

*CAP
0 Transmitter\/Unit1\/U13:Y 0.01074506
1 Transmitter\/Unit1\/U35:A4 0.001
2 Transmitter/Unit1/n29:2 0.02106233
3 Transmitter/Unit1/n29:3 0.01488521
4 Transmitter/Unit1/n29:4 0.01483403
5 Transmitter/Unit1/n29:5 0.01483403
6 Transmitter/Unit1/n29:6 0.0735831
7 Transmitter/Unit1/n29:7 0.07387992
8 Transmitter/Unit1/n29:8 0.008669663

*RES
0 Transmitter\/Unit1\/U13:Y Transmitter/Unit1/n29:8 0.09166668
1 Transmitter/Unit1/n29:3 Transmitter\/Unit1\/U35:A4 1
2 Transmitter/Unit1/n29:3 Transmitter/Unit1/n29:2 0.2825
3 Transmitter/Unit1/n29:4 Transmitter/Unit1/n29:3 0.5
4 Transmitter/Unit1/n29:6 Transmitter/Unit1/n29:5 0.5
5 Transmitter/Unit1/n29:5 Transmitter/Unit1/n29:4 0.4946429
6 Transmitter/Unit1/n29:8 Transmitter/Unit1/n29:7 1
7 Transmitter/Unit1/n29:7 Transmitter/Unit1/n29:6 2.666071

*END

*D_NET Transmitter/Unit1/n30 0.7657048 //LENGTH 8.308 LUMPCC 0 DR

*CONN
*I Transmitter\/Unit1\/U42:Y O *L 0 *C 26.444 27.204
*I Transmitter\/Unit1\/U41:A1 I *L 0.545591 *C 24.772 27.660
*I Transmitter\/Unit1\/U13:A2 I *L 1.005399 *C 28.572 24.620
*N Transmitter/Unit1/n30:3 *C 28.572 24.634
*N Transmitter/Unit1/n30:4 *C 28.572 25.215
*N Transmitter/Unit1/n30:5 *C 28.559 25.228
*N Transmitter/Unit1/n30:6 *C 25.698 25.228
*N Transmitter/Unit1/n30:7 *C 25.684 25.242
*N Transmitter/Unit1/n30:8 *C 24.772 27.659
*N Transmitter/Unit1/n30:9 *C 24.772 27.066
*N Transmitter/Unit1/n30:10 *C 24.786 27.052
*N Transmitter/Unit1/n30:11 *C 25.671 27.052
*N Transmitter/Unit1/n30:12 *C 25.684 27.052
*N Transmitter/Unit1/n30:13 *C 25.684 27.204
*N Transmitter/Unit1/n30:14 *C 26.443 27.204

*CAP
0 Transmitter\/Unit1\/U42:Y 0.001
1 Transmitter\/Unit1\/U41:A1 0.001
2 Transmitter\/Unit1\/U13:A2 0.001
3 Transmitter/Unit1/n30:3 0.04085344
4 Transmitter/Unit1/n30:4 0.04228612
5 Transmitter/Unit1/n30:5 0.1409628
6 Transmitter/Unit1/n30:6 0.1409628
7 Transmitter/Unit1/n30:7 0.0791136
8 Transmitter/Unit1/n30:8 0.03722457
9 Transmitter/Unit1/n30:9 0.03865725
10 Transmitter/Unit1/n30:10 0.04155675
11 Transmitter/Unit1/n30:11 0.04155675
12 Transmitter/Unit1/n30:12 0.08679458
13 Transmitter/Unit1/n30:13 0.04180866
14 Transmitter/Unit1/n30:14 0.03092725

*RES
0 Transmitter\/Unit1\/U42:Y Transmitter/Unit1/n30:14 1
1 Transmitter/Unit1/n30:14 Transmitter/Unit1/n30:13 1.355357
2 Transmitter/Unit1/n30:7 Transmitter/Unit1/n30:6 0.5
3 Transmitter/Unit1/n30:6 Transmitter/Unit1/n30:5 5.108929
4 Transmitter/Unit1/n30:4 Transmitter/Unit1/n30:3 1.0375
5 Transmitter/Unit1/n30:5 Transmitter/Unit1/n30:4 0.5
6 Transmitter/Unit1/n30:3 Transmitter\/Unit1\/U13:A2 1
7 Transmitter/Unit1/n30:12 Transmitter/Unit1/n30:11 0.5
8 Transmitter/Unit1/n30:12 Transmitter/Unit1/n30:7 3.233036
9 Transmitter/Unit1/n30:11 Transmitter/Unit1/n30:10 1.580357
10 Transmitter/Unit1/n30:9 Transmitter/Unit1/n30:8 1.059822
11 Transmitter/Unit1/n30:10 Transmitter/Unit1/n30:9 0.5
12 Transmitter/Unit1/n30:8 Transmitter\/Unit1\/U41:A1 1
13 Transmitter/Unit1/n30:13 Transmitter/Unit1/n30:12 0.2714285

*END

*D_NET Transmitter/Unit1/n31 0.8626245 //LENGTH 9.941 LUMPCC 0 DR

*CONN
*I Transmitter\/Unit1\/U36:Y O *L 0 *C 28.420 25.836
*I Transmitter\/Unit1\/U12:A2 I *L 1.005399 *C 24.924 26.140
*I Transmitter\/Unit1\/U11:A2 I *L 1.005399 *C 32.524 24.620
*N Transmitter/Unit1/n31:3 *C 32.538 24.620
*N Transmitter/Unit1/n31:4 *C 32.675 24.620
*N Transmitter/Unit1/n31:5 *C 32.663 24.620
*N Transmitter/Unit1/n31:6 *C 28.434 24.620
*N Transmitter/Unit1/n31:7 *C 28.420 24.634
*N Transmitter/Unit1/n31:8 *C 24.924 26.127
*N Transmitter/Unit1/n31:9 *C 24.924 25.850
*N Transmitter/Unit1/n31:10 *C 24.938 25.836
*N Transmitter/Unit1/n31:11 *C 28.255 25.836
*N Transmitter/Unit1/n31:12 *C 28.269 25.836
*N Transmitter/Unit1/n31:13 *C 28.420 25.823

*CAP
0 Transmitter\/Unit1\/U36:Y 0.001
1 Transmitter\/Unit1\/U12:A2 0.001
2 Transmitter\/Unit1\/U11:A2 0.001
3 Transmitter/Unit1/n31:3 0.005773594
4 Transmitter/Unit1/n31:4 0.007206273
5 Transmitter/Unit1/n31:5 0.1817235
6 Transmitter/Unit1/n31:6 0.1817235
7 Transmitter/Unit1/n31:7 0.0667915
8 Transmitter/Unit1/n31:8 0.01698504
9 Transmitter/Unit1/n31:9 0.01841772
10 Transmitter/Unit1/n31:10 0.1497305
11 Transmitter/Unit1/n31:11 0.1497305
12 Transmitter/Unit1/n31:12 0.006875861
13 Transmitter/Unit1/n31:13 0.07466662

*RES
0 Transmitter\/Unit1\/U36:Y Transmitter/Unit1/n31:13 1
1 Transmitter/Unit1/n31:13 Transmitter/Unit1/n31:12 0.2696429
2 Transmitter/Unit1/n31:13 Transmitter/Unit1/n31:7 2.123214
3 Transmitter/Unit1/n31:7 Transmitter/Unit1/n31:6 0.5
4 Transmitter/Unit1/n31:6 Transmitter/Unit1/n31:5 7.551786
5 Transmitter/Unit1/n31:4 Transmitter/Unit1/n31:3 0.2455357
6 Transmitter/Unit1/n31:5 Transmitter/Unit1/n31:4 0.5
7 Transmitter/Unit1/n31:3 Transmitter\/Unit1\/U11:A2 1
8 Transmitter/Unit1/n31:12 Transmitter/Unit1/n31:11 0.5
9 Transmitter/Unit1/n31:11 Transmitter/Unit1/n31:10 5.923214
10 Transmitter/Unit1/n31:9 Transmitter/Unit1/n31:8 0.4946429
11 Transmitter/Unit1/n31:10 Transmitter/Unit1/n31:9 0.5
12 Transmitter/Unit1/n31:8 Transmitter\/Unit1\/U12:A2 1

*END

*D_NET Transmitter/Unit1/n32 0.1490511 //LENGTH 1.326 LUMPCC 0 DR

*CONN
*I Transmitter\/Unit1\/U37:Y O *L 0 *C 29.028 30.244
*I Transmitter\/Unit1\/U14:A1 I *L 1.174364 *C 29.028 31.460
*N Transmitter/Unit1/n32:2 *C 29.028 31.447
*N Transmitter/Unit1/n32:3 *C 29.028 30.258

*CAP
0 Transmitter\/Unit1\/U37:Y 0.001
1 Transmitter\/Unit1\/U14:A1 0.001
2 Transmitter/Unit1/n32:2 0.07308713
3 Transmitter/Unit1/n32:3 0.07396397

*RES
0 Transmitter\/Unit1\/U37:Y Transmitter/Unit1/n32:3 1
1 Transmitter/Unit1/n32:2 Transmitter\/Unit1\/U14:A1 1
2 Transmitter/Unit1/n32:3 Transmitter/Unit1/n32:2 2.123214

*END

*D_NET Transmitter/Unit1/n33 0.2042551 //LENGTH 2.463 LUMPCC 0 DR

*CONN
*I Transmitter\/Unit1\/U44:Y O *L 0 *C 24.316 31.004
*I Transmitter\/Unit1\/U38:A1 I *L 0.478845 *C 25.988 31.156
*N Transmitter/Unit1/n33:2 *C 25.988 31.156
*N Transmitter/Unit1/n33:3 *C 25.988 31.296
*N Transmitter/Unit1/n33:4 *C 25.975 31.308
*N Transmitter/Unit1/n33:5 *C 24.329 31.308
*N Transmitter/Unit1/n33:6 *C 24.316 31.295
*N Transmitter/Unit1/n33:7 *C 24.316 31.018

*CAP
0 Transmitter\/Unit1\/U44:Y 0.001
1 Transmitter\/Unit1\/U38:A1 0.001
2 Transmitter/Unit1/n33:2 0.01186415
3 Transmitter/Unit1/n33:3 0.01329682
4 Transmitter/Unit1/n33:4 0.0733714
5 Transmitter/Unit1/n33:5 0.0733714
6 Transmitter/Unit1/n33:6 0.01589201
7 Transmitter/Unit1/n33:7 0.01445933

*RES
0 Transmitter\/Unit1\/U44:Y Transmitter/Unit1/n33:7 1
1 Transmitter/Unit1/n33:2 Transmitter\/Unit1\/U38:A1 1
2 Transmitter/Unit1/n33:3 Transmitter/Unit1/n33:2 0.2325
3 Transmitter/Unit1/n33:4 Transmitter/Unit1/n33:3 0.5
4 Transmitter/Unit1/n33:6 Transmitter/Unit1/n33:5 0.5
5 Transmitter/Unit1/n33:5 Transmitter/Unit1/n33:4 2.9375
6 Transmitter/Unit1/n33:7 Transmitter/Unit1/n33:6 0.4946429

*END

*D_NET Transmitter/Unit1/n34 0.7465988 //LENGTH 7.815 LUMPCC 0 DR

*CONN
*I Transmitter\/Unit1\/U43:Y O *L 0 *C 24.012 28.268
*I Transmitter\/Unit1\/U42:A1 I *L 0.592288 *C 25.988 27.812
*I Transmitter\/Unit1\/U5:A I *L 0.577904 *C 26.596 29.484
*I Transmitter\/Unit1\/U40:A1 I *L 0.545591 *C 25.836 29.788
*I Transmitter\/Unit1\/U38:A2 I *L 0.484089 *C 26.140 31.460
*N Transmitter/Unit1/n34:5 *C 24.012 28.086
*N Transmitter/Unit1/n34:6 *C 26.140 31.447
*N Transmitter/Unit1/n34:7 *C 25.850 29.788
*N Transmitter/Unit1/n34:8 *C 26.596 29.498
*N Transmitter/Unit1/n34:9 *C 26.596 29.774
*N Transmitter/Unit1/n34:10 *C 26.582 29.788
*N Transmitter/Unit1/n34:11 *C 26.154 29.788
*N Transmitter/Unit1/n34:12 *C 26.140 29.788
*N Transmitter/Unit1/n34:13 *C 26.002 27.812
*N Transmitter/Unit1/n34:14 *C 26.140 27.812
*N Transmitter/Unit1/n34:15 *C 26.140 28.268
*N Transmitter/Unit1/n34:16 *C 26.127 28.268
*N Transmitter/Unit1/n34:17 *C 24.026 28.268
*N Transmitter/Unit1/n34:18 *C 24.012 28.256

*CAP
0 Transmitter\/Unit1\/U43:Y 0.001
1 Transmitter\/Unit1\/U42:A1 0.001
2 Transmitter\/Unit1\/U5:A 0.001
3 Transmitter\/Unit1\/U40:A1 0.001
4 Transmitter\/Unit1\/U38:A2 0.001
5 Transmitter/Unit1/n34:5 0.01460773
6 Transmitter/Unit1/n34:6 0.09377955
7 Transmitter/Unit1/n34:7 0.01235052
8 Transmitter/Unit1/n34:8 0.02139234
9 Transmitter/Unit1/n34:9 0.02282502
10 Transmitter/Unit1/n34:10 0.02189721
11 Transmitter/Unit1/n34:11 0.02189721
12 Transmitter/Unit1/n34:12 0.191062
13 Transmitter/Unit1/n34:13 0.006251373
14 Transmitter/Unit1/n34:14 0.03449203
15 Transmitter/Unit1/n34:15 0.1017579
16 Transmitter/Unit1/n34:16 0.09542762
17 Transmitter/Unit1/n34:17 0.09542762
18 Transmitter/Unit1/n34:18 0.008430617

*RES
0 Transmitter\/Unit1\/U43:Y Transmitter/Unit1/n34:18 1
1 Transmitter/Unit1/n34:6 Transmitter\/Unit1\/U38:A2 1
2 Transmitter/Unit1/n34:12 Transmitter/Unit1/n34:11 0.5
3 Transmitter/Unit1/n34:12 Transmitter/Unit1/n34:7 0.5187501
4 Transmitter/Unit1/n34:12 Transmitter/Unit1/n34:6 2.961607
5 Transmitter/Unit1/n34:11 Transmitter/Unit1/n34:10 0.7660714
6 Transmitter/Unit1/n34:9 Transmitter/Unit1/n34:8 0.4946429
7 Transmitter/Unit1/n34:10 Transmitter/Unit1/n34:9 0.5
8 Transmitter/Unit1/n34:8 Transmitter\/Unit1\/U5:A 1
9 Transmitter/Unit1/n34:13 Transmitter\/Unit1\/U42:A1 1
10 Transmitter/Unit1/n34:7 Transmitter\/Unit1\/U40:A1 1
11 Transmitter/Unit1/n34:15 Transmitter/Unit1/n34:14 0.8142858
12 Transmitter/Unit1/n34:15 Transmitter/Unit1/n34:12 2.714286
13 Transmitter/Unit1/n34:16 Transmitter/Unit1/n34:15 0.5
14 Transmitter/Unit1/n34:18 Transmitter/Unit1/n34:17 0.5
15 Transmitter/Unit1/n34:18 Transmitter/Unit1/n34:5 0.2825
16 Transmitter/Unit1/n34:17 Transmitter/Unit1/n34:16 3.751786
17 Transmitter/Unit1/n34:14 Transmitter/Unit1/n34:13 0.2473214

*END

*D_NET Transmitter/Unit1/n35 0.2840097 //LENGTH 3.370 LUMPCC 0 DR

*CONN
*I Transmitter\/Unit1\/U39:Y O *L 0 *C 25.532 33.132
*I Transmitter\/Unit1\/U38:A5 I *L 0.523436 *C 26.748 31.308
*N Transmitter/Unit1/n35:2 *C 26.748 31.322
*N Transmitter/Unit1/n35:3 *C 26.748 32.511
*N Transmitter/Unit1/n35:4 *C 26.735 32.524
*N Transmitter/Unit1/n35:5 *C 25.546 32.524
*N Transmitter/Unit1/n35:6 *C 25.532 32.538
*N Transmitter/Unit1/n35:7 *C 25.532 33.119

*CAP
0 Transmitter\/Unit1\/U39:Y 0.001
1 Transmitter\/Unit1\/U38:A5 0.001
2 Transmitter/Unit1/n35:2 0.05939311
3 Transmitter/Unit1/n35:3 0.06082579
4 Transmitter/Unit1/n35:4 0.0537299
5 Transmitter/Unit1/n35:5 0.0537299
6 Transmitter/Unit1/n35:6 0.02788186
7 Transmitter/Unit1/n35:7 0.02644918

*RES
0 Transmitter\/Unit1\/U39:Y Transmitter/Unit1/n35:7 1
1 Transmitter/Unit1/n35:2 Transmitter\/Unit1\/U38:A5 1
2 Transmitter/Unit1/n35:3 Transmitter/Unit1/n35:2 2.123214
3 Transmitter/Unit1/n35:4 Transmitter/Unit1/n35:3 0.5
4 Transmitter/Unit1/n35:6 Transmitter/Unit1/n35:5 0.5
5 Transmitter/Unit1/n35:5 Transmitter/Unit1/n35:4 2.123214
6 Transmitter/Unit1/n35:7 Transmitter/Unit1/n35:6 1.0375

*END

*D_NET Transmitter/Unit1/n36 0.5832613 //LENGTH 5.654 LUMPCC 0 DR

*CONN
*I Transmitter\/Unit1\/U41:Y O *L 0 *C 24.924 27.812
*I Transmitter\/Unit1\/U39:A1 I *L 0.467813 *C 24.620 32.828
*N Transmitter/Unit1/n36:2 *C 24.620 32.815
*N Transmitter/Unit1/n36:3 *C 24.620 31.916
*N Transmitter/Unit1/n36:4 *C 24.772 31.916
*N Transmitter/Unit1/n36:5 *C 24.772 30.092
*N Transmitter/Unit1/n36:6 *C 24.924 30.092
*N Transmitter/Unit1/n36:7 *C 24.924 27.826

*CAP
0 Transmitter\/Unit1\/U41:Y 0.001
1 Transmitter\/Unit1\/U39:A1 0.001
2 Transmitter/Unit1/n36:2 0.04934722
3 Transmitter/Unit1/n36:3 0.06160283
4 Transmitter/Unit1/n36:4 0.1085134
5 Transmitter/Unit1/n36:5 0.1085859
6 Transmitter/Unit1/n36:6 0.1327701
7 Transmitter/Unit1/n36:7 0.120442

*RES
0 Transmitter\/Unit1\/U41:Y Transmitter/Unit1/n36:7 1
1 Transmitter/Unit1/n36:2 Transmitter\/Unit1\/U39:A1 1
2 Transmitter/Unit1/n36:7 Transmitter/Unit1/n36:6 4.047322
3 Transmitter/Unit1/n36:3 Transmitter/Unit1/n36:2 1.604464
4 Transmitter/Unit1/n36:4 Transmitter/Unit1/n36:3 0.2714286
5 Transmitter/Unit1/n36:5 Transmitter/Unit1/n36:4 3.257143
6 Transmitter/Unit1/n36:6 Transmitter/Unit1/n36:5 0.2714286

*END

*D_NET Transmitter/Unit1/n37 0.3103005 //LENGTH 3.654 LUMPCC 0 DR

*CONN
*I Transmitter\/Unit1\/U40:Y O *L 0 *C 25.684 29.636
*I Transmitter\/Unit1\/U39:A3 I *L 0.535173 *C 25.076 32.220
*N Transmitter/Unit1/n37:2 *C 25.076 32.038
*N Transmitter/Unit1/n37:3 *C 25.076 32.208
*N Transmitter/Unit1/n37:4 *C 25.090 32.220
*N Transmitter/Unit1/n37:5 *C 25.671 32.220
*N Transmitter/Unit1/n37:6 *C 25.684 32.206
*N Transmitter/Unit1/n37:7 *C 25.684 29.649

*CAP
0 Transmitter\/Unit1\/U40:Y 0.001
1 Transmitter\/Unit1\/U39:A3 0.001
2 Transmitter/Unit1/n37:2 0.01348871
3 Transmitter/Unit1/n37:3 0.007311595
4 Transmitter/Unit1/n37:4 0.02557776
5 Transmitter/Unit1/n37:5 0.02557776
6 Transmitter/Unit1/n37:6 0.1188887
7 Transmitter/Unit1/n37:7 0.117456

*RES
0 Transmitter\/Unit1\/U40:Y Transmitter/Unit1/n37:7 1
1 Transmitter/Unit1/n37:3 Transmitter\/Unit1\/U39:A3 1
2 Transmitter/Unit1/n37:3 Transmitter/Unit1/n37:2 0.2825
3 Transmitter/Unit1/n37:4 Transmitter/Unit1/n37:3 0.5
4 Transmitter/Unit1/n37:6 Transmitter/Unit1/n37:5 0.5
5 Transmitter/Unit1/n37:5 Transmitter/Unit1/n37:4 1.0375
6 Transmitter/Unit1/n37:7 Transmitter/Unit1/n37:6 4.566072

*END

*D_NET Transmitter/Unit1/n38 0.2012921 //LENGTH 2.311 LUMPCC 0 DR

*CONN
*I Transmitter\/Unit1\/U46:Y O *L 0 *C 24.164 30.244
*I Transmitter\/Unit1\/U44:A1 I *L 0.478845 *C 23.100 31.156
*N Transmitter/Unit1/n38:2 *C 23.100 31.143
*N Transmitter/Unit1/n38:3 *C 23.100 30.410
*N Transmitter/Unit1/n38:4 *C 23.114 30.396
*N Transmitter/Unit1/n38:5 *C 24.151 30.396
*N Transmitter/Unit1/n38:6 *C 24.164 30.384
*N Transmitter/Unit1/n38:7 *C 24.164 30.244

*CAP
0 Transmitter\/Unit1\/U46:Y 0.001
1 Transmitter\/Unit1\/U44:A1 0.001
2 Transmitter/Unit1/n38:2 0.04191013
3 Transmitter/Unit1/n38:3 0.04334281
4 Transmitter/Unit1/n38:4 0.04822386
5 Transmitter/Unit1/n38:5 0.04822386
6 Transmitter/Unit1/n38:6 0.009209829
7 Transmitter/Unit1/n38:7 0.008381623

*RES
0 Transmitter\/Unit1\/U46:Y Transmitter/Unit1/n38:7 1
1 Transmitter/Unit1/n38:2 Transmitter\/Unit1\/U44:A1 1
2 Transmitter/Unit1/n38:3 Transmitter/Unit1/n38:2 1.308929
3 Transmitter/Unit1/n38:4 Transmitter/Unit1/n38:3 0.5
4 Transmitter/Unit1/n38:6 Transmitter/Unit1/n38:5 0.5
5 Transmitter/Unit1/n38:5 Transmitter/Unit1/n38:4 1.851786
6 Transmitter/Unit1/n38:7 Transmitter/Unit1/n38:6 0.2325

*END

*D_NET Transmitter/Unit1/n1 0.6198433 //LENGTH 6.274 LUMPCC 0 DR

*CONN
*I Transmitter\/Unit1\/U5:Y O *L 0 *C 26.748 29.044
*I Transmitter\/Unit1\/U17:A1 I *L 1.174364 *C 28.116 28.116
*I Transmitter\/Unit1\/U38:A3 I *L 0.484798 *C 26.444 31.916
*N Transmitter/Unit1/n1:3 *C 26.444 31.902
*N Transmitter/Unit1/n1:4 *C 28.116 28.130
*N Transmitter/Unit1/n1:5 *C 28.116 28.863
*N Transmitter/Unit1/n1:6 *C 28.103 28.876
*N Transmitter/Unit1/n1:7 *C 26.457 28.876
*N Transmitter/Unit1/n1:8 *C 26.444 28.890
*N Transmitter/Unit1/n1:9 *C 26.444 29.028
*N Transmitter/Unit1/n1:10 *C 26.747 29.028
*N Transmitter/Unit1/n1:11 *C 26.748 29.028

*CAP
0 Transmitter\/Unit1\/U5:Y 0.008172582
1 Transmitter\/Unit1\/U17:A1 0.001
2 Transmitter\/Unit1\/U38:A3 0.001
3 Transmitter/Unit1/n1:3 0.15496
4 Transmitter/Unit1/n1:4 0.04686654
5 Transmitter/Unit1/n1:5 0.04829922
6 Transmitter/Unit1/n1:6 0.07435472
7 Transmitter/Unit1/n1:7 0.07435472
8 Transmitter/Unit1/n1:8 0.007418145
9 Transmitter/Unit1/n1:9 0.1839754
10 Transmitter/Unit1/n1:10 0.01334471
11 Transmitter/Unit1/n1:11 0.006097184

*RES
0 Transmitter\/Unit1\/U5:Y Transmitter/Unit1/n1:11 0.09166668
1 Transmitter/Unit1/n1:11 Transmitter/Unit1/n1:10 1
2 Transmitter/Unit1/n1:10 Transmitter/Unit1/n1:9 0.5410715
3 Transmitter/Unit1/n1:3 Transmitter\/Unit1\/U38:A3 1
4 Transmitter/Unit1/n1:8 Transmitter/Unit1/n1:7 0.5
5 Transmitter/Unit1/n1:7 Transmitter/Unit1/n1:6 2.9375
6 Transmitter/Unit1/n1:5 Transmitter/Unit1/n1:4 1.308929
7 Transmitter/Unit1/n1:6 Transmitter/Unit1/n1:5 0.5
8 Transmitter/Unit1/n1:4 Transmitter\/Unit1\/U17:A1 1
9 Transmitter/Unit1/n1:9 Transmitter/Unit1/n1:8 0.2473214
10 Transmitter/Unit1/n1:9 Transmitter/Unit1/n1:3 5.133036

*END

*D_NET Transmitter/Unit1/n2 0.3510314 //LENGTH 3.721 LUMPCC 0 DR

*CONN
*I Transmitter\/Unit1\/U3:Y O *L 0 *C 22.340 29.332
*I Transmitter\/Unit1\/U43:A2 I *L 0.46235 *C 23.708 27.964
*I Transmitter\/Unit1\/U47:A2 I *L 0.46235 *C 22.492 27.964
*N Transmitter/Unit1/n2:3 *C 22.492 27.978
*N Transmitter/Unit1/n2:4 *C 23.708 27.965
*N Transmitter/Unit1/n2:5 *C 23.708 28.559
*N Transmitter/Unit1/n2:6 *C 23.695 28.572
*N Transmitter/Unit1/n2:7 *C 22.506 28.572
*N Transmitter/Unit1/n2:8 *C 22.492 28.559
*N Transmitter/Unit1/n2:9 *C 22.340 28.572
*N Transmitter/Unit1/n2:10 *C 22.340 29.319

*CAP
0 Transmitter\/Unit1\/U3:Y 0.001
1 Transmitter\/Unit1\/U43:A2 0.001
2 Transmitter\/Unit1\/U47:A2 0.001
3 Transmitter/Unit1/n2:3 0.04245762
4 Transmitter/Unit1/n2:4 0.02940312
5 Transmitter/Unit1/n2:5 0.03066285
6 Transmitter/Unit1/n2:6 0.0494693
7 Transmitter/Unit1/n2:7 0.0494693
8 Transmitter/Unit1/n2:8 0.0524807
9 Transmitter/Unit1/n2:9 0.05324191
10 Transmitter/Unit1/n2:10 0.04084661

*RES
0 Transmitter\/Unit1\/U3:Y Transmitter/Unit1/n2:10 1
1 Transmitter/Unit1/n2:8 Transmitter/Unit1/n2:7 0.5
2 Transmitter/Unit1/n2:8 Transmitter/Unit1/n2:3 1.0375
3 Transmitter/Unit1/n2:7 Transmitter/Unit1/n2:6 2.123214
4 Transmitter/Unit1/n2:5 Transmitter/Unit1/n2:4 1.059822
5 Transmitter/Unit1/n2:6 Transmitter/Unit1/n2:5 0.5
6 Transmitter/Unit1/n2:4 Transmitter\/Unit1\/U43:A2 1
7 Transmitter/Unit1/n2:3 Transmitter\/Unit1\/U47:A2 1
8 Transmitter/Unit1/n2:10 Transmitter/Unit1/n2:9 1.333036
9 Transmitter/Unit1/n2:9 Transmitter/Unit1/n2:8 0.2714286

*END

*D_NET Transmitter/Unit1/n3 0.3381655 //LENGTH 3.572 LUMPCC 0 DR

*CONN
*I Transmitter\/Unit1\/U6:Y O *L 0 *C 21.732 28.116
*I Transmitter\/Unit1\/U47:A1 I *L 0.545591 *C 22.340 27.660
*I Transmitter\/Unit1\/U45:A2 I *L 0.46235 *C 22.796 29.484
*N Transmitter/Unit1/n3:3 *C 22.796 29.483
*N Transmitter/Unit1/n3:4 *C 22.796 28.876
*N Transmitter/Unit1/n3:5 *C 22.644 28.876
*N Transmitter/Unit1/n3:6 *C 22.644 28.282
*N Transmitter/Unit1/n3:7 *C 22.631 28.268
*N Transmitter/Unit1/n3:8 *C 22.340 27.674
*N Transmitter/Unit1/n3:9 *C 22.340 28.255
*N Transmitter/Unit1/n3:10 *C 22.340 28.268
*N Transmitter/Unit1/n3:11 *C 21.745 28.268
*N Transmitter/Unit1/n3:12 *C 21.732 28.256
*N Transmitter/Unit1/n3:13 *C 21.732 28.116

*CAP
0 Transmitter\/Unit1\/U6:Y 0.001
1 Transmitter\/Unit1\/U47:A1 0.001
2 Transmitter\/Unit1\/U45:A2 0.001
3 Transmitter/Unit1/n3:3 0.03051103
4 Transmitter/Unit1/n3:4 0.04279774
5 Transmitter/Unit1/n3:5 0.04748744
6 Transmitter/Unit1/n3:6 0.03646046
7 Transmitter/Unit1/n3:7 0.01466358
8 Transmitter/Unit1/n3:8 0.03866029
9 Transmitter/Unit1/n3:9 0.04009297
10 Transmitter/Unit1/n3:10 0.04229169
11 Transmitter/Unit1/n3:11 0.02525588
12 Transmitter/Unit1/n3:12 0.009188536
13 Transmitter/Unit1/n3:13 0.007755858

*RES
0 Transmitter\/Unit1\/U6:Y Transmitter/Unit1/n3:13 1
1 Transmitter/Unit1/n3:6 Transmitter/Unit1/n3:5 1.061607
2 Transmitter/Unit1/n3:7 Transmitter/Unit1/n3:6 0.5
3 Transmitter/Unit1/n3:3 Transmitter\/Unit1\/U45:A2 1
4 Transmitter/Unit1/n3:9 Transmitter/Unit1/n3:8 1.0375
5 Transmitter/Unit1/n3:10 Transmitter/Unit1/n3:9 0.5
6 Transmitter/Unit1/n3:10 Transmitter/Unit1/n3:7 0.51875
7 Transmitter/Unit1/n3:8 Transmitter\/Unit1\/U47:A1 1
8 Transmitter/Unit1/n3:12 Transmitter/Unit1/n3:11 0.5
9 Transmitter/Unit1/n3:11 Transmitter/Unit1/n3:10 1.061607
10 Transmitter/Unit1/n3:13 Transmitter/Unit1/n3:12 0.2325
11 Transmitter/Unit1/n3:5 Transmitter/Unit1/n3:4 0.2714286
12 Transmitter/Unit1/n3:4 Transmitter/Unit1/n3:3 1.083929

*END

*D_NET Transmitter/Unit1/clock_ticks[13] 0.7451636 //LENGTH 9.954 LUMPCC 0 DR

*CONN
*I Transmitter\/Unit1\/clock_ticks_reg[13]:Q O *L 0 *C 37.388 29.788
*I Transmitter\/Unit1\/U15:A2 I *L 1.005399 *C 31.764 27.964
*I Transmitter\/Unit1\/add_62\/U2:A2 I *L 1.005399 *C 36.932 26.140
*N Transmitter/Unit1/clock_ticks[13]:3 *C 36.932 26.154
*N Transmitter/Unit1/clock_ticks[13]:4 *C 31.764 27.782
*N Transmitter/Unit1/clock_ticks[13]:5 *C 31.764 27.952
*N Transmitter/Unit1/clock_ticks[13]:6 *C 31.777 27.964
*N Transmitter/Unit1/clock_ticks[13]:7 *C 36.919 27.964
*N Transmitter/Unit1/clock_ticks[13]:8 *C 36.932 27.964
*N Transmitter/Unit1/clock_ticks[13]:9 *C 36.932 28.863
*N Transmitter/Unit1/clock_ticks[13]:10 *C 36.946 28.876
*N Transmitter/Unit1/clock_ticks[13]:11 *C 37.375 28.876
*N Transmitter/Unit1/clock_ticks[13]:12 *C 37.388 28.890
*N Transmitter/Unit1/clock_ticks[13]:13 *C 37.388 29.774

*CAP
0 Transmitter\/Unit1\/clock_ticks_reg[13]:Q 0.001
1 Transmitter\/Unit1\/U15:A2 0.001
2 Transmitter\/Unit1\/add_62\/U2:A2 0.001
3 Transmitter/Unit1/clock_ticks[13]:3 0.08323898
4 Transmitter/Unit1/clock_ticks[13]:4 0.01307939
5 Transmitter/Unit1/clock_ticks[13]:5 0.006902274
6 Transmitter/Unit1/clock_ticks[13]:6 0.1854385
7 Transmitter/Unit1/clock_ticks[13]:7 0.1854385
8 Transmitter/Unit1/clock_ticks[13]:8 0.1200335
9 Transmitter/Unit1/clock_ticks[13]:9 0.03298962
10 Transmitter/Unit1/clock_ticks[13]:10 0.01931379
11 Transmitter/Unit1/clock_ticks[13]:11 0.01931379
12 Transmitter/Unit1/clock_ticks[13]:12 0.03892391
13 Transmitter/Unit1/clock_ticks[13]:13 0.03749123

*RES
0 Transmitter\/Unit1\/clock_ticks_reg[13]:Q Transmitter/Unit1/clock_ticks[13]:13 1
1 Transmitter/Unit1/clock_ticks[13]:9 Transmitter/Unit1/clock_ticks[13]:8 1.604464
2 Transmitter/Unit1/clock_ticks[13]:10 Transmitter/Unit1/clock_ticks[13]:9 0.5
3 Transmitter/Unit1/clock_ticks[13]:12 Transmitter/Unit1/clock_ticks[13]:11 0.5
4 Transmitter/Unit1/clock_ticks[13]:11 Transmitter/Unit1/clock_ticks[13]:10 0.7660714
5 Transmitter/Unit1/clock_ticks[13]:13 Transmitter/Unit1/clock_ticks[13]:12 1.580357
6 Transmitter/Unit1/clock_ticks[13]:3 Transmitter\/Unit1\/add_62\/U2:A2 1
7 Transmitter/Unit1/clock_ticks[13]:8 Transmitter/Unit1/clock_ticks[13]:7 0.5
8 Transmitter/Unit1/clock_ticks[13]:8 Transmitter/Unit1/clock_ticks[13]:3 3.233036
9 Transmitter/Unit1/clock_ticks[13]:7 Transmitter/Unit1/clock_ticks[13]:6 9.180358
10 Transmitter/Unit1/clock_ticks[13]:5 Transmitter\/Unit1\/U15:A2 1
11 Transmitter/Unit1/clock_ticks[13]:5 Transmitter/Unit1/clock_ticks[13]:4 0.2825
12 Transmitter/Unit1/clock_ticks[13]:6 Transmitter/Unit1/clock_ticks[13]:5 0.5

*END

*D_NET Transmitter/Unit1/clock_ticks[12] 1.044656 //LENGTH 13.197 LUMPCC 0 DR

*CONN
*I Transmitter\/Unit1\/clock_ticks_reg[12]:Q O *L 0 *C 37.084 25.228
*I Transmitter\/Unit1\/add_62\/U1_1_12:A0 I *L 0.988659 *C 33.132 26.140
*I Transmitter\/Unit1\/U17:A2 I *L 0.973269 *C 27.812 27.964
*N Transmitter/Unit1/clock_ticks[12]:3 *C 27.812 27.951
*N Transmitter/Unit1/clock_ticks[12]:4 *C 27.812 27.370
*N Transmitter/Unit1/clock_ticks[12]:5 *C 27.826 27.356
*N Transmitter/Unit1/clock_ticks[12]:6 *C 33.132 27.356
*N Transmitter/Unit1/clock_ticks[12]:7 *C 33.132 26.154
*N Transmitter/Unit1/clock_ticks[12]:8 *C 33.132 26.735
*N Transmitter/Unit1/clock_ticks[12]:9 *C 33.132 26.748
*N Transmitter/Unit1/clock_ticks[12]:10 *C 37.071 26.748
*N Transmitter/Unit1/clock_ticks[12]:11 *C 37.084 26.735
*N Transmitter/Unit1/clock_ticks[12]:12 *C 37.084 25.242

*CAP
0 Transmitter\/Unit1\/clock_ticks_reg[12]:Q 0.001
1 Transmitter\/Unit1\/add_62\/U1_1_12:A0 0.001
2 Transmitter\/Unit1\/U17:A2 0.001
3 Transmitter/Unit1/clock_ticks[12]:3 0.04403098
4 Transmitter/Unit1/clock_ticks[12]:4 0.04546366
5 Transmitter/Unit1/clock_ticks[12]:5 0.2067251
6 Transmitter/Unit1/clock_ticks[12]:6 0.2312056
7 Transmitter/Unit1/clock_ticks[12]:7 0.02966039
8 Transmitter/Unit1/clock_ticks[12]:8 0.03109307
9 Transmitter/Unit1/clock_ticks[12]:9 0.1613015
10 Transmitter/Unit1/clock_ticks[12]:10 0.1391932
11 Transmitter/Unit1/clock_ticks[12]:11 0.07630957
12 Transmitter/Unit1/clock_ticks[12]:12 0.07667301

*RES
0 Transmitter\/Unit1\/clock_ticks_reg[12]:Q Transmitter/Unit1/clock_ticks[12]:12 1
1 Transmitter/Unit1/clock_ticks[12]:11 Transmitter/Unit1/clock_ticks[12]:10 0.5
2 Transmitter/Unit1/clock_ticks[12]:10 Transmitter/Unit1/clock_ticks[12]:9 7.033036
3 Transmitter/Unit1/clock_ticks[12]:12 Transmitter/Unit1/clock_ticks[12]:11 2.666071
4 Transmitter/Unit1/clock_ticks[12]:8 Transmitter/Unit1/clock_ticks[12]:7 1.0375
5 Transmitter/Unit1/clock_ticks[12]:9 Transmitter/Unit1/clock_ticks[12]:8 0.5
6 Transmitter/Unit1/clock_ticks[12]:9 Transmitter/Unit1/clock_ticks[12]:6 1.085714
7 Transmitter/Unit1/clock_ticks[12]:7 Transmitter\/Unit1\/add_62\/U1_1_12:A0 1
8 Transmitter/Unit1/clock_ticks[12]:4 Transmitter/Unit1/clock_ticks[12]:3 1.0375
9 Transmitter/Unit1/clock_ticks[12]:5 Transmitter/Unit1/clock_ticks[12]:4 0.5
10 Transmitter/Unit1/clock_ticks[12]:3 Transmitter\/Unit1\/U17:A2 1
11 Transmitter/Unit1/clock_ticks[12]:6 Transmitter/Unit1/clock_ticks[12]:5 9.475893

*END

*D_NET Transmitter/Unit1/clock_ticks[11] 0.7784948 //LENGTH 8.901 LUMPCC 0 DR

*CONN
*I Transmitter\/Unit1\/clock_ticks_reg[11]:Q O *L 0 *C 37.388 23.100
*I Transmitter\/Unit1\/U11:A1 I *L 0.954271 *C 32.220 24.772
*I Transmitter\/Unit1\/add_62\/U1_1_11:A0 I *L 0.988659 *C 31.308 22.796
*N Transmitter/Unit1/clock_ticks[11]:3 *C 37.388 22.918
*N Transmitter/Unit1/clock_ticks[11]:4 *C 31.308 22.614
*N Transmitter/Unit1/clock_ticks[11]:5 *C 31.308 22.784
*N Transmitter/Unit1/clock_ticks[11]:6 *C 31.322 22.796
*N Transmitter/Unit1/clock_ticks[11]:7 *C 32.220 22.796
*N Transmitter/Unit1/clock_ticks[11]:8 *C 32.220 24.759
*N Transmitter/Unit1/clock_ticks[11]:9 *C 32.220 23.114
*N Transmitter/Unit1/clock_ticks[11]:10 *C 32.220 23.100
*N Transmitter/Unit1/clock_ticks[11]:11 *C 37.375 23.100
*N Transmitter/Unit1/clock_ticks[11]:12 *C 37.388 23.088

*CAP
0 Transmitter\/Unit1\/clock_ticks_reg[11]:Q 0.001
1 Transmitter\/Unit1\/U11:A1 0.001
2 Transmitter\/Unit1\/add_62\/U1_1_11:A0 0.001
3 Transmitter/Unit1/clock_ticks[11]:3 0.01209463
4 Transmitter/Unit1/clock_ticks[11]:4 0.013084
5 Transmitter/Unit1/clock_ticks[11]:5 0.006906883
6 Transmitter/Unit1/clock_ticks[11]:6 0.04021876
7 Transmitter/Unit1/clock_ticks[11]:7 0.05524767
8 Transmitter/Unit1/clock_ticks[11]:8 0.09877599
9 Transmitter/Unit1/clock_ticks[11]:9 0.1002087
10 Transmitter/Unit1/clock_ticks[11]:10 0.2278487
11 Transmitter/Unit1/clock_ticks[11]:11 0.215192
12 Transmitter/Unit1/clock_ticks[11]:12 0.005917516

*RES
0 Transmitter\/Unit1\/clock_ticks_reg[11]:Q Transmitter/Unit1/clock_ticks[11]:12 1
1 Transmitter/Unit1/clock_ticks[11]:12 Transmitter/Unit1/clock_ticks[11]:11 0.5
2 Transmitter/Unit1/clock_ticks[11]:12 Transmitter/Unit1/clock_ticks[11]:3 0.2825
3 Transmitter/Unit1/clock_ticks[11]:11 Transmitter/Unit1/clock_ticks[11]:10 9.204465
4 Transmitter/Unit1/clock_ticks[11]:9 Transmitter/Unit1/clock_ticks[11]:8 2.9375
5 Transmitter/Unit1/clock_ticks[11]:10 Transmitter/Unit1/clock_ticks[11]:9 0.5
6 Transmitter/Unit1/clock_ticks[11]:10 Transmitter/Unit1/clock_ticks[11]:7 0.5428572
7 Transmitter/Unit1/clock_ticks[11]:8 Transmitter\/Unit1\/U11:A1 1
8 Transmitter/Unit1/clock_ticks[11]:5 Transmitter\/Unit1\/add_62\/U1_1_11:A0 1
9 Transmitter/Unit1/clock_ticks[11]:5 Transmitter/Unit1/clock_ticks[11]:4 0.2825
10 Transmitter/Unit1/clock_ticks[11]:6 Transmitter/Unit1/clock_ticks[11]:5 0.5
11 Transmitter/Unit1/clock_ticks[11]:7 Transmitter/Unit1/clock_ticks[11]:6 1.604464

*END

*D_NET Transmitter/Unit1/clock_ticks[10] 0.6003885 //LENGTH 7.615 LUMPCC 0 DR

*CONN
*I Transmitter\/Unit1\/clock_ticks_reg[10]:Q O *L 0 *C 31.004 19.756
*I Transmitter\/Unit1\/add_62\/U1_1_10:A0 I *L 0.988659 *C 30.548 21.276
*I Transmitter\/Unit1\/U13:A1 I *L 0.954271 *C 28.876 24.772
*N Transmitter/Unit1/clock_ticks[10]:3 *C 28.876 24.759
*N Transmitter/Unit1/clock_ticks[10]:4 *C 28.876 22.201
*N Transmitter/Unit1/clock_ticks[10]:5 *C 28.890 22.188
*N Transmitter/Unit1/clock_ticks[10]:6 *C 30.535 22.188
*N Transmitter/Unit1/clock_ticks[10]:7 *C 30.548 22.175
*N Transmitter/Unit1/clock_ticks[10]:8 *C 30.548 21.276
*N Transmitter/Unit1/clock_ticks[10]:9 *C 31.004 21.276
*N Transmitter/Unit1/clock_ticks[10]:10 *C 31.004 19.770

*CAP
0 Transmitter\/Unit1\/clock_ticks_reg[10]:Q 0.001
1 Transmitter\/Unit1\/add_62\/U1_1_10:A0 0.001
2 Transmitter\/Unit1\/U13:A1 0.001
3 Transmitter/Unit1/clock_ticks[10]:3 0.1061086
4 Transmitter/Unit1/clock_ticks[10]:4 0.1075413
5 Transmitter/Unit1/clock_ticks[10]:5 0.06844487
6 Transmitter/Unit1/clock_ticks[10]:6 0.06844487
7 Transmitter/Unit1/clock_ticks[10]:7 0.03970686
8 Transmitter/Unit1/clock_ticks[10]:8 0.0588052
9 Transmitter/Unit1/clock_ticks[10]:9 0.08633635
10 Transmitter/Unit1/clock_ticks[10]:10 0.06200043

*RES
0 Transmitter\/Unit1\/clock_ticks_reg[10]:Q Transmitter/Unit1/clock_ticks[10]:10 1
1 Transmitter/Unit1/clock_ticks[10]:10 Transmitter/Unit1/clock_ticks[10]:9 2.690179
2 Transmitter/Unit1/clock_ticks[10]:8 Transmitter\/Unit1\/add_62\/U1_1_10:A0 1
3 Transmitter/Unit1/clock_ticks[10]:8 Transmitter/Unit1/clock_ticks[10]:7 1.604465
4 Transmitter/Unit1/clock_ticks[10]:7 Transmitter/Unit1/clock_ticks[10]:6 0.5
5 Transmitter/Unit1/clock_ticks[10]:6 Transmitter/Unit1/clock_ticks[10]:5 2.9375
6 Transmitter/Unit1/clock_ticks[10]:4 Transmitter/Unit1/clock_ticks[10]:3 4.566072
7 Transmitter/Unit1/clock_ticks[10]:5 Transmitter/Unit1/clock_ticks[10]:4 0.5
8 Transmitter/Unit1/clock_ticks[10]:3 Transmitter\/Unit1\/U13:A1 1
9 Transmitter/Unit1/clock_ticks[10]:9 Transmitter/Unit1/clock_ticks[10]:8 0.8142858

*END

*D_NET Transmitter/Unit1/clock_ticks[9] 0.3783985 //LENGTH 4.656 LUMPCC 0 DR

*CONN
*I Transmitter\/Unit1\/clock_ticks_reg[9]:Q O *L 0 *C 26.748 19.756
*I Transmitter\/Unit1\/add_62\/U1_1_9:A0 I *L 0.988659 *C 25.532 21.276
*I Transmitter\/Unit1\/U9:A2 I *L 1.005399 *C 27.964 21.276
*N Transmitter/Unit1/clock_ticks[9]:3 *C 27.964 21.094
*N Transmitter/Unit1/clock_ticks[9]:4 *C 27.964 21.264
*N Transmitter/Unit1/clock_ticks[9]:5 *C 27.951 21.276
*N Transmitter/Unit1/clock_ticks[9]:6 *C 25.532 21.094
*N Transmitter/Unit1/clock_ticks[9]:7 *C 25.532 21.264
*N Transmitter/Unit1/clock_ticks[9]:8 *C 25.546 21.276
*N Transmitter/Unit1/clock_ticks[9]:9 *C 26.748 21.276
*N Transmitter/Unit1/clock_ticks[9]:10 *C 26.748 21.262
*N Transmitter/Unit1/clock_ticks[9]:11 *C 26.748 19.770

*CAP
0 Transmitter\/Unit1\/clock_ticks_reg[9]:Q 0.001
1 Transmitter\/Unit1\/add_62\/U1_1_9:A0 0.001
2 Transmitter\/Unit1\/U9:A2 0.001
3 Transmitter/Unit1/clock_ticks[9]:3 0.013014
4 Transmitter/Unit1/clock_ticks[9]:4 0.006836885
5 Transmitter/Unit1/clock_ticks[9]:5 0.05084775
6 Transmitter/Unit1/clock_ticks[9]:6 0.01222711
7 Transmitter/Unit1/clock_ticks[9]:7 0.006049999
8 Transmitter/Unit1/clock_ticks[9]:8 0.05020006
9 Transmitter/Unit1/clock_ticks[9]:9 0.10342
10 Transmitter/Unit1/clock_ticks[9]:10 0.06711769
11 Transmitter/Unit1/clock_ticks[9]:11 0.06568501

*RES
0 Transmitter\/Unit1\/clock_ticks_reg[9]:Q Transmitter/Unit1/clock_ticks[9]:11 1
1 Transmitter/Unit1/clock_ticks[9]:4 Transmitter\/Unit1\/U9:A2 1
2 Transmitter/Unit1/clock_ticks[9]:4 Transmitter/Unit1/clock_ticks[9]:3 0.2825
3 Transmitter/Unit1/clock_ticks[9]:5 Transmitter/Unit1/clock_ticks[9]:4 0.5
4 Transmitter/Unit1/clock_ticks[9]:10 Transmitter/Unit1/clock_ticks[9]:9 0.5
5 Transmitter/Unit1/clock_ticks[9]:9 Transmitter/Unit1/clock_ticks[9]:8 2.147321
6 Transmitter/Unit1/clock_ticks[9]:9 Transmitter/Unit1/clock_ticks[9]:5 2.147322
7 Transmitter/Unit1/clock_ticks[9]:11 Transmitter/Unit1/clock_ticks[9]:10 2.666071
8 Transmitter/Unit1/clock_ticks[9]:7 Transmitter\/Unit1\/add_62\/U1_1_9:A0 1
9 Transmitter/Unit1/clock_ticks[9]:7 Transmitter/Unit1/clock_ticks[9]:6 0.2825
10 Transmitter/Unit1/clock_ticks[9]:8 Transmitter/Unit1/clock_ticks[9]:7 0.5

*END

*D_NET Transmitter/Unit1/clock_ticks[8] 0.7201485 //LENGTH 8.648 LUMPCC 0 DR

*CONN
*I Transmitter\/Unit1\/clock_ticks_reg[8]:Q O *L 0 *C 22.340 19.756
*I Transmitter\/Unit1\/add_62\/U1_1_8:A0 I *L 0.988659 *C 21.884 21.276
*I Transmitter\/Unit1\/U8:A2 I *L 1.005399 *C 24.316 24.620
*N Transmitter/Unit1/clock_ticks[8]:3 *C 24.316 24.607
*N Transmitter/Unit1/clock_ticks[8]:4 *C 24.316 20.378
*N Transmitter/Unit1/clock_ticks[8]:5 *C 24.303 20.364
*N Transmitter/Unit1/clock_ticks[8]:6 *C 21.884 21.262
*N Transmitter/Unit1/clock_ticks[8]:7 *C 21.884 20.378
*N Transmitter/Unit1/clock_ticks[8]:8 *C 21.898 20.364
*N Transmitter/Unit1/clock_ticks[8]:9 *C 22.340 20.364
*N Transmitter/Unit1/clock_ticks[8]:10 *C 22.340 20.351
*N Transmitter/Unit1/clock_ticks[8]:11 *C 22.340 19.770

*CAP
0 Transmitter\/Unit1\/clock_ticks_reg[8]:Q 0.001
1 Transmitter\/Unit1\/add_62\/U1_1_8:A0 0.001
2 Transmitter\/Unit1\/U8:A2 0.001
3 Transmitter/Unit1/clock_ticks[8]:3 0.1843946
4 Transmitter/Unit1/clock_ticks[8]:4 0.1858272
5 Transmitter/Unit1/clock_ticks[8]:5 0.08389287
6 Transmitter/Unit1/clock_ticks[8]:6 0.03958263
7 Transmitter/Unit1/clock_ticks[8]:7 0.04101531
8 Transmitter/Unit1/clock_ticks[8]:8 0.02009385
9 Transmitter/Unit1/clock_ticks[8]:9 0.1063589
10 Transmitter/Unit1/clock_ticks[8]:10 0.02870788
11 Transmitter/Unit1/clock_ticks[8]:11 0.0272752

*RES
0 Transmitter\/Unit1\/clock_ticks_reg[8]:Q Transmitter/Unit1/clock_ticks[8]:11 1
1 Transmitter/Unit1/clock_ticks[8]:4 Transmitter/Unit1/clock_ticks[8]:3 7.551786
2 Transmitter/Unit1/clock_ticks[8]:5 Transmitter/Unit1/clock_ticks[8]:4 0.5
3 Transmitter/Unit1/clock_ticks[8]:3 Transmitter\/Unit1\/U8:A2 1
4 Transmitter/Unit1/clock_ticks[8]:10 Transmitter/Unit1/clock_ticks[8]:9 0.5
5 Transmitter/Unit1/clock_ticks[8]:9 Transmitter/Unit1/clock_ticks[8]:8 0.7901786
6 Transmitter/Unit1/clock_ticks[8]:9 Transmitter/Unit1/clock_ticks[8]:5 3.504464
7 Transmitter/Unit1/clock_ticks[8]:11 Transmitter/Unit1/clock_ticks[8]:10 1.0375
8 Transmitter/Unit1/clock_ticks[8]:7 Transmitter/Unit1/clock_ticks[8]:6 1.580357
9 Transmitter/Unit1/clock_ticks[8]:8 Transmitter/Unit1/clock_ticks[8]:7 0.5
10 Transmitter/Unit1/clock_ticks[8]:6 Transmitter\/Unit1\/add_62\/U1_1_8:A0 1

*END

*D_NET Transmitter/Unit1/clock_ticks[7] 0.4794051 //LENGTH 5.819 LUMPCC 0 DR

*CONN
*I Transmitter\/Unit1\/clock_ticks_reg[7]:Q O *L 0 *C 21.428 23.100
*I Transmitter\/Unit1\/add_62\/U1_1_7:A0 I *L 0.988659 *C 23.252 24.620
*I Transmitter\/Unit1\/U7:A2 I *L 1.005399 *C 22.340 26.140
*N Transmitter/Unit1/clock_ticks[7]:3 *C 21.428 22.918
*N Transmitter/Unit1/clock_ticks[7]:4 *C 22.340 26.127
*N Transmitter/Unit1/clock_ticks[7]:5 *C 23.252 24.438
*N Transmitter/Unit1/clock_ticks[7]:6 *C 23.252 24.608
*N Transmitter/Unit1/clock_ticks[7]:7 *C 23.239 24.620
*N Transmitter/Unit1/clock_ticks[7]:8 *C 22.354 24.620
*N Transmitter/Unit1/clock_ticks[7]:9 *C 22.340 24.634
*N Transmitter/Unit1/clock_ticks[7]:10 *C 22.036 24.620
*N Transmitter/Unit1/clock_ticks[7]:11 *C 22.036 23.114
*N Transmitter/Unit1/clock_ticks[7]:12 *C 22.023 23.100
*N Transmitter/Unit1/clock_ticks[7]:13 *C 21.442 23.100
*N Transmitter/Unit1/clock_ticks[7]:14 *C 21.428 23.088

*CAP
0 Transmitter\/Unit1\/clock_ticks_reg[7]:Q 0.001
1 Transmitter\/Unit1\/add_62\/U1_1_7:A0 0.001
2 Transmitter\/Unit1\/U7:A2 0.001
3 Transmitter/Unit1/clock_ticks[7]:3 0.01233028
4 Transmitter/Unit1/clock_ticks[7]:4 0.06778346
5 Transmitter/Unit1/clock_ticks[7]:5 0.01269473
6 Transmitter/Unit1/clock_ticks[7]:6 0.006517617
7 Transmitter/Unit1/clock_ticks[7]:7 0.03945955
8 Transmitter/Unit1/clock_ticks[7]:8 0.03945955
9 Transmitter/Unit1/clock_ticks[7]:9 0.08452021
10 Transmitter/Unit1/clock_ticks[7]:10 0.08972426
11 Transmitter/Unit1/clock_ticks[7]:11 0.07204796
12 Transmitter/Unit1/clock_ticks[7]:12 0.02285716
13 Transmitter/Unit1/clock_ticks[7]:13 0.02285716
14 Transmitter/Unit1/clock_ticks[7]:14 0.006153162

*RES
0 Transmitter\/Unit1\/clock_ticks_reg[7]:Q Transmitter/Unit1/clock_ticks[7]:14 1
1 Transmitter/Unit1/clock_ticks[7]:4 Transmitter\/Unit1\/U7:A2 1
2 Transmitter/Unit1/clock_ticks[7]:9 Transmitter/Unit1/clock_ticks[7]:8 0.5
3 Transmitter/Unit1/clock_ticks[7]:9 Transmitter/Unit1/clock_ticks[7]:4 2.666071
4 Transmitter/Unit1/clock_ticks[7]:8 Transmitter/Unit1/clock_ticks[7]:7 1.580357
5 Transmitter/Unit1/clock_ticks[7]:6 Transmitter\/Unit1\/add_62\/U1_1_7:A0 1
6 Transmitter/Unit1/clock_ticks[7]:6 Transmitter/Unit1/clock_ticks[7]:5 0.2825
7 Transmitter/Unit1/clock_ticks[7]:7 Transmitter/Unit1/clock_ticks[7]:6 0.5
8 Transmitter/Unit1/clock_ticks[7]:11 Transmitter/Unit1/clock_ticks[7]:10 2.690179
9 Transmitter/Unit1/clock_ticks[7]:12 Transmitter/Unit1/clock_ticks[7]:11 0.5
10 Transmitter/Unit1/clock_ticks[7]:14 Transmitter/Unit1/clock_ticks[7]:13 0.5
11 Transmitter/Unit1/clock_ticks[7]:14 Transmitter/Unit1/clock_ticks[7]:3 0.2825
12 Transmitter/Unit1/clock_ticks[7]:13 Transmitter/Unit1/clock_ticks[7]:12 1.0375
13 Transmitter/Unit1/clock_ticks[7]:10 Transmitter/Unit1/clock_ticks[7]:9 0.5428572

*END

*D_NET Transmitter/Unit1/clock_ticks[6] 0.5234878 //LENGTH 6.007 LUMPCC 0 DR

*CONN
*I Transmitter\/Unit1\/clock_ticks_reg[6]:Q O *L 0 *C 22.218 31.264
*I Transmitter\/Unit1\/add_62\/U1_1_6:A0 I *L 0.988659 *C 20.516 29.484
*I Transmitter\/Unit1\/U44:A5 I *L 0.523436 *C 23.860 31.308
*N Transmitter/Unit1/clock_ticks[6]:3 *C 23.860 31.126
*N Transmitter/Unit1/clock_ticks[6]:4 *C 23.860 31.296
*N Transmitter/Unit1/clock_ticks[6]:5 *C 23.847 31.308
*N Transmitter/Unit1/clock_ticks[6]:6 *C 20.516 29.498
*N Transmitter/Unit1/clock_ticks[6]:7 *C 20.516 31.295
*N Transmitter/Unit1/clock_ticks[6]:8 *C 20.530 31.308
*N Transmitter/Unit1/clock_ticks[6]:9 *C 22.188 31.308
*N Transmitter/Unit1/clock_ticks[6]:10 *C 22.188 31.296
*N Transmitter/Unit1/clock_ticks[6]:11 *C 22.188 31.156
*N Transmitter/Unit1/clock_ticks[6]:12 *C 22.188 31.156

*CAP
0 Transmitter\/Unit1\/clock_ticks_reg[6]:Q 0.01154554
1 Transmitter\/Unit1\/add_62\/U1_1_6:A0 0.001
2 Transmitter\/Unit1\/U44:A5 0.001
3 Transmitter/Unit1/clock_ticks[6]:3 0.0130956
4 Transmitter/Unit1/clock_ticks[6]:4 0.006918486
5 Transmitter/Unit1/clock_ticks[6]:5 0.06979673
6 Transmitter/Unit1/clock_ticks[6]:6 0.08783454
7 Transmitter/Unit1/clock_ticks[6]:7 0.08926722
8 Transmitter/Unit1/clock_ticks[6]:8 0.06982821
9 Transmitter/Unit1/clock_ticks[6]:9 0.1419972
10 Transmitter/Unit1/clock_ticks[6]:10 0.01071866
11 Transmitter/Unit1/clock_ticks[6]:11 0.01101548
12 Transmitter/Unit1/clock_ticks[6]:12 0.009470141

*RES
0 Transmitter\/Unit1\/clock_ticks_reg[6]:Q Transmitter/Unit1/clock_ticks[6]:12 0.09166667
1 Transmitter/Unit1/clock_ticks[6]:4 Transmitter\/Unit1\/U44:A5 1
2 Transmitter/Unit1/clock_ticks[6]:4 Transmitter/Unit1/clock_ticks[6]:3 0.2825
3 Transmitter/Unit1/clock_ticks[6]:5 Transmitter/Unit1/clock_ticks[6]:4 0.5
4 Transmitter/Unit1/clock_ticks[6]:10 Transmitter/Unit1/clock_ticks[6]:9 0.5
5 Transmitter/Unit1/clock_ticks[6]:9 Transmitter/Unit1/clock_ticks[6]:8 2.961607
6 Transmitter/Unit1/clock_ticks[6]:9 Transmitter/Unit1/clock_ticks[6]:5 2.961607
7 Transmitter/Unit1/clock_ticks[6]:12 Transmitter/Unit1/clock_ticks[6]:11 1
8 Transmitter/Unit1/clock_ticks[6]:11 Transmitter/Unit1/clock_ticks[6]:10 0.2325
9 Transmitter/Unit1/clock_ticks[6]:7 Transmitter/Unit1/clock_ticks[6]:6 3.208929
10 Transmitter/Unit1/clock_ticks[6]:8 Transmitter/Unit1/clock_ticks[6]:7 0.5
11 Transmitter/Unit1/clock_ticks[6]:6 Transmitter\/Unit1\/add_62\/U1_1_6:A0 1

*END

*D_NET Transmitter/Unit1/clock_ticks[5] 0.6159916 //LENGTH 7.564 LUMPCC 0 DR

*CONN
*I Transmitter\/Unit1\/clock_ticks_reg[5]:Q O *L 0 *C 21.428 26.444
*I Transmitter\/Unit1\/add_62\/U1_1_5:A0 I *L 0.988659 *C 20.212 27.964
*I Transmitter\/Unit1\/U12:A1 I *L 0.954271 *C 25.228 25.988
*N Transmitter/Unit1/clock_ticks[5]:3 *C 21.428 26.262
*N Transmitter/Unit1/clock_ticks[5]:4 *C 25.228 26.002
*N Transmitter/Unit1/clock_ticks[5]:5 *C 25.228 26.431
*N Transmitter/Unit1/clock_ticks[5]:6 *C 25.215 26.444
*N Transmitter/Unit1/clock_ticks[5]:7 *C 20.212 27.951
*N Transmitter/Unit1/clock_ticks[5]:8 *C 20.212 26.457
*N Transmitter/Unit1/clock_ticks[5]:9 *C 20.226 26.444
*N Transmitter/Unit1/clock_ticks[5]:10 *C 21.428 26.444
*N Transmitter/Unit1/clock_ticks[5]:11 *C 21.428 26.431

*CAP
0 Transmitter\/Unit1\/clock_ticks_reg[5]:Q 0.001
1 Transmitter\/Unit1\/add_62\/U1_1_5:A0 0.001
2 Transmitter\/Unit1\/U12:A1 0.001
3 Transmitter/Unit1/clock_ticks[5]:3 0.01227621
4 Transmitter/Unit1/clock_ticks[5]:4 0.02241372
5 Transmitter/Unit1/clock_ticks[5]:5 0.0238464
6 Transmitter/Unit1/clock_ticks[5]:6 0.1596012
7 Transmitter/Unit1/clock_ticks[5]:7 0.069189
8 Transmitter/Unit1/clock_ticks[5]:8 0.07062168
9 Transmitter/Unit1/clock_ticks[5]:9 0.04348546
10 Transmitter/Unit1/clock_ticks[5]:10 0.2054588
11 Transmitter/Unit1/clock_ticks[5]:11 0.006099091

*RES
0 Transmitter\/Unit1\/clock_ticks_reg[5]:Q Transmitter/Unit1/clock_ticks[5]:11 1
1 Transmitter/Unit1/clock_ticks[5]:5 Transmitter/Unit1/clock_ticks[5]:4 0.7660714
2 Transmitter/Unit1/clock_ticks[5]:6 Transmitter/Unit1/clock_ticks[5]:5 0.5
3 Transmitter/Unit1/clock_ticks[5]:4 Transmitter\/Unit1\/U12:A1 1
4 Transmitter/Unit1/clock_ticks[5]:11 Transmitter/Unit1/clock_ticks[5]:10 0.5
5 Transmitter/Unit1/clock_ticks[5]:11 Transmitter/Unit1/clock_ticks[5]:3 0.2825
6 Transmitter/Unit1/clock_ticks[5]:10 Transmitter/Unit1/clock_ticks[5]:9 2.147322
7 Transmitter/Unit1/clock_ticks[5]:10 Transmitter/Unit1/clock_ticks[5]:6 6.761608
8 Transmitter/Unit1/clock_ticks[5]:8 Transmitter/Unit1/clock_ticks[5]:7 2.666071
9 Transmitter/Unit1/clock_ticks[5]:9 Transmitter/Unit1/clock_ticks[5]:8 0.5
10 Transmitter/Unit1/clock_ticks[5]:7 Transmitter\/Unit1\/add_62\/U1_1_5:A0 1

*END

*D_NET Transmitter/Unit1/clock_ticks[4] 0.6166479 //LENGTH 6.554 LUMPCC 0 DR

*CONN
*I Transmitter\/Unit1\/clock_ticks_reg[4]:Q O *L 0 *C 22.796 34.348
*I Transmitter\/Unit1\/add_62\/U1_1_4:A0 I *L 0.988659 *C 22.188 36.172
*I Transmitter\/Unit1\/U44:A2 I *L 0.484089 *C 23.252 31.460
*N Transmitter/Unit1/clock_ticks[4]:3 *C 23.252 31.474
*N Transmitter/Unit1/clock_ticks[4]:4 *C 22.188 36.159
*N Transmitter/Unit1/clock_ticks[4]:5 *C 22.188 34.361
*N Transmitter/Unit1/clock_ticks[4]:6 *C 22.201 34.348
*N Transmitter/Unit1/clock_ticks[4]:7 *C 23.239 34.348
*N Transmitter/Unit1/clock_ticks[4]:8 *C 23.252 34.334
*N Transmitter/Unit1/clock_ticks[4]:9 *C 22.797 34.348

*CAP
0 Transmitter\/Unit1\/clock_ticks_reg[4]:Q 0.001
1 Transmitter\/Unit1\/add_62\/U1_1_4:A0 0.001
2 Transmitter\/Unit1\/U44:A2 0.001
3 Transmitter/Unit1/clock_ticks[4]:3 0.143448
4 Transmitter/Unit1/clock_ticks[4]:4 0.09337045
5 Transmitter/Unit1/clock_ticks[4]:5 0.09480312
6 Transmitter/Unit1/clock_ticks[4]:6 0.04698826
7 Transmitter/Unit1/clock_ticks[4]:7 0.04698826
8 Transmitter/Unit1/clock_ticks[4]:8 0.1683677
9 Transmitter/Unit1/clock_ticks[4]:9 0.01968211

*RES
0 Transmitter\/Unit1\/clock_ticks_reg[4]:Q Transmitter/Unit1/clock_ticks[4]:9 1
1 Transmitter/Unit1/clock_ticks[4]:3 Transmitter\/Unit1\/U44:A2 1
2 Transmitter/Unit1/clock_ticks[4]:9 Transmitter/Unit1/clock_ticks[4]:8 0.8125
3 Transmitter/Unit1/clock_ticks[4]:8 Transmitter/Unit1/clock_ticks[4]:7 0.5
4 Transmitter/Unit1/clock_ticks[4]:8 Transmitter/Unit1/clock_ticks[4]:3 5.108929
5 Transmitter/Unit1/clock_ticks[4]:7 Transmitter/Unit1/clock_ticks[4]:6 1.851786
6 Transmitter/Unit1/clock_ticks[4]:5 Transmitter/Unit1/clock_ticks[4]:4 3.208928
7 Transmitter/Unit1/clock_ticks[4]:6 Transmitter/Unit1/clock_ticks[4]:5 0.5
8 Transmitter/Unit1/clock_ticks[4]:4 Transmitter\/Unit1\/add_62\/U1_1_4:A0 1

*END

*D_NET Transmitter/Unit1/clock_ticks[3] 0.7098503 //LENGTH 8.324 LUMPCC 0 DR

*CONN
*I Transmitter\/Unit1\/clock_ticks_reg[3]:Q O *L 0 *C 27.052 34.348
*I Transmitter\/Unit1\/add_62\/U1_1_3:A0 I *L 0.988659 *C 25.380 36.172
*I Transmitter\/Unit1\/U44:A3 I *L 0.484798 *C 23.556 31.916
*N Transmitter/Unit1/clock_ticks[3]:3 *C 27.052 34.166
*N Transmitter/Unit1/clock_ticks[3]:4 *C 23.556 31.930
*N Transmitter/Unit1/clock_ticks[3]:5 *C 23.556 34.334
*N Transmitter/Unit1/clock_ticks[3]:6 *C 23.570 34.348
*N Transmitter/Unit1/clock_ticks[3]:7 *C 25.380 36.159
*N Transmitter/Unit1/clock_ticks[3]:8 *C 25.380 34.361
*N Transmitter/Unit1/clock_ticks[3]:9 *C 25.380 34.348
*N Transmitter/Unit1/clock_ticks[3]:10 *C 27.039 34.348
*N Transmitter/Unit1/clock_ticks[3]:11 *C 27.052 34.336

*CAP
0 Transmitter\/Unit1\/clock_ticks_reg[3]:Q 0.001
1 Transmitter\/Unit1\/add_62\/U1_1_3:A0 0.001
2 Transmitter\/Unit1\/U44:A3 0.001
3 Transmitter/Unit1/clock_ticks[3]:3 0.01800249
4 Transmitter/Unit1/clock_ticks[3]:4 0.1238205
5 Transmitter/Unit1/clock_ticks[3]:5 0.1252532
6 Transmitter/Unit1/clock_ticks[3]:6 0.07113103
7 Transmitter/Unit1/clock_ticks[3]:7 0.07784379
8 Transmitter/Unit1/clock_ticks[3]:8 0.07927646
9 Transmitter/Unit1/clock_ticks[3]:9 0.1366004
10 Transmitter/Unit1/clock_ticks[3]:10 0.06309714
11 Transmitter/Unit1/clock_ticks[3]:11 0.01182537

*RES
0 Transmitter\/Unit1\/clock_ticks_reg[3]:Q Transmitter/Unit1/clock_ticks[3]:11 1
1 Transmitter/Unit1/clock_ticks[3]:11 Transmitter/Unit1/clock_ticks[3]:10 0.5
2 Transmitter/Unit1/clock_ticks[3]:11 Transmitter/Unit1/clock_ticks[3]:3 0.2825
3 Transmitter/Unit1/clock_ticks[3]:10 Transmitter/Unit1/clock_ticks[3]:9 2.961607
4 Transmitter/Unit1/clock_ticks[3]:8 Transmitter/Unit1/clock_ticks[3]:7 3.208929
5 Transmitter/Unit1/clock_ticks[3]:9 Transmitter/Unit1/clock_ticks[3]:8 0.5
6 Transmitter/Unit1/clock_ticks[3]:9 Transmitter/Unit1/clock_ticks[3]:6 3.233036
7 Transmitter/Unit1/clock_ticks[3]:7 Transmitter\/Unit1\/add_62\/U1_1_3:A0 1
8 Transmitter/Unit1/clock_ticks[3]:5 Transmitter/Unit1/clock_ticks[3]:4 4.294643
9 Transmitter/Unit1/clock_ticks[3]:6 Transmitter/Unit1/clock_ticks[3]:5 0.5
10 Transmitter/Unit1/clock_ticks[3]:4 Transmitter\/Unit1\/U44:A3 1

*END

*D_NET Transmitter/Unit1/clock_ticks[2] 0.7151707 //LENGTH 9.021 LUMPCC 0 DR

*CONN
*I Transmitter\/Unit1\/clock_ticks_reg[2]:Q O *L 0 *C 31.612 34.348
*I Transmitter\/Unit1\/add_62\/U1_1_2:A0 I *L 0.988659 *C 28.268 36.172
*I Transmitter\/Unit1\/U14:A2 I *L 0.973269 *C 28.724 31.308
*N Transmitter/Unit1/clock_ticks[2]:3 *C 31.612 34.166
*N Transmitter/Unit1/clock_ticks[2]:4 *C 28.724 31.309
*N Transmitter/Unit1/clock_ticks[2]:5 *C 28.724 34.348
*N Transmitter/Unit1/clock_ticks[2]:6 *C 28.268 36.159
*N Transmitter/Unit1/clock_ticks[2]:7 *C 28.268 35.564
*N Transmitter/Unit1/clock_ticks[2]:8 *C 28.420 35.564
*N Transmitter/Unit1/clock_ticks[2]:9 *C 28.420 34.348
*N Transmitter/Unit1/clock_ticks[2]:10 *C 28.572 34.348
*N Transmitter/Unit1/clock_ticks[2]:11 *C 28.585 34.348
*N Transmitter/Unit1/clock_ticks[2]:12 *C 31.599 34.348
*N Transmitter/Unit1/clock_ticks[2]:13 *C 31.612 34.336

*CAP
0 Transmitter\/Unit1\/clock_ticks_reg[2]:Q 0.001
1 Transmitter\/Unit1\/add_62\/U1_1_2:A0 0.001
2 Transmitter\/Unit1\/U14:A2 0.001
3 Transmitter/Unit1/clock_ticks[2]:3 0.01405868
4 Transmitter/Unit1/clock_ticks[2]:4 0.1275814
5 Transmitter/Unit1/clock_ticks[2]:5 0.1386296
6 Transmitter/Unit1/clock_ticks[2]:6 0.02436973
7 Transmitter/Unit1/clock_ticks[2]:7 0.03623094
8 Transmitter/Unit1/clock_ticks[2]:8 0.06621174
9 Transmitter/Unit1/clock_ticks[2]:9 0.06539871
10 Transmitter/Unit1/clock_ticks[2]:10 0.01211434
11 Transmitter/Unit1/clock_ticks[2]:11 0.109847
12 Transmitter/Unit1/clock_ticks[2]:12 0.109847
13 Transmitter/Unit1/clock_ticks[2]:13 0.007881566

*RES
0 Transmitter\/Unit1\/clock_ticks_reg[2]:Q Transmitter/Unit1/clock_ticks[2]:13 1
1 Transmitter/Unit1/clock_ticks[2]:4 Transmitter\/Unit1\/U14:A2 1
2 Transmitter/Unit1/clock_ticks[2]:10 Transmitter/Unit1/clock_ticks[2]:9 0.2714286
3 Transmitter/Unit1/clock_ticks[2]:10 Transmitter/Unit1/clock_ticks[2]:5 0.2714286
4 Transmitter/Unit1/clock_ticks[2]:11 Transmitter/Unit1/clock_ticks[2]:10 0.5
5 Transmitter/Unit1/clock_ticks[2]:13 Transmitter/Unit1/clock_ticks[2]:12 0.5
6 Transmitter/Unit1/clock_ticks[2]:13 Transmitter/Unit1/clock_ticks[2]:3 0.2825
7 Transmitter/Unit1/clock_ticks[2]:12 Transmitter/Unit1/clock_ticks[2]:11 5.380358
8 Transmitter/Unit1/clock_ticks[2]:6 Transmitter\/Unit1\/add_62\/U1_1_2:A0 1
9 Transmitter/Unit1/clock_ticks[2]:7 Transmitter/Unit1/clock_ticks[2]:6 1.061607
10 Transmitter/Unit1/clock_ticks[2]:8 Transmitter/Unit1/clock_ticks[2]:7 0.2714286
11 Transmitter/Unit1/clock_ticks[2]:9 Transmitter/Unit1/clock_ticks[2]:8 2.171428
12 Transmitter/Unit1/clock_ticks[2]:5 Transmitter/Unit1/clock_ticks[2]:4 5.426786

*END

*D_NET Transmitter/Unit1/clock_ticks[1] 0.4550647 //LENGTH 5.760 LUMPCC 0 DR

*CONN
*I Transmitter\/Unit1\/clock_ticks_reg[1]:Q O *L 0 *C 35.868 35.260
*I Transmitter\/Unit1\/add_62\/U1_1_1:A0 I *L 0.988659 *C 33.892 36.172
*I Transmitter\/Unit1\/U16:A2 I *L 1.005399 *C 32.372 36.172
*N Transmitter/Unit1/clock_ticks[1]:3 *C 32.372 36.186
*N Transmitter/Unit1/clock_ticks[1]:4 *C 32.372 36.462
*N Transmitter/Unit1/clock_ticks[1]:5 *C 32.386 36.476
*N Transmitter/Unit1/clock_ticks[1]:6 *C 33.892 36.186
*N Transmitter/Unit1/clock_ticks[1]:7 *C 33.892 36.462
*N Transmitter/Unit1/clock_ticks[1]:8 *C 33.892 36.476
*N Transmitter/Unit1/clock_ticks[1]:9 *C 35.855 36.476
*N Transmitter/Unit1/clock_ticks[1]:10 *C 35.868 36.462
*N Transmitter/Unit1/clock_ticks[1]:11 *C 35.868 35.273

*CAP
0 Transmitter\/Unit1\/clock_ticks_reg[1]:Q 0.001
1 Transmitter\/Unit1\/add_62\/U1_1_1:A0 0.001
2 Transmitter\/Unit1\/U16:A2 0.001
3 Transmitter/Unit1/clock_ticks[1]:3 0.01677818
4 Transmitter/Unit1/clock_ticks[1]:4 0.01821086
5 Transmitter/Unit1/clock_ticks[1]:5 0.06065625
6 Transmitter/Unit1/clock_ticks[1]:6 0.01408029
7 Transmitter/Unit1/clock_ticks[1]:7 0.01551297
8 Transmitter/Unit1/clock_ticks[1]:8 0.1416408
9 Transmitter/Unit1/clock_ticks[1]:9 0.07861231
10 Transmitter/Unit1/clock_ticks[1]:10 0.05310478
11 Transmitter/Unit1/clock_ticks[1]:11 0.05346822

*RES
0 Transmitter\/Unit1\/clock_ticks_reg[1]:Q Transmitter/Unit1/clock_ticks[1]:11 1
1 Transmitter/Unit1/clock_ticks[1]:10 Transmitter/Unit1/clock_ticks[1]:9 0.5
2 Transmitter/Unit1/clock_ticks[1]:9 Transmitter/Unit1/clock_ticks[1]:8 3.504464
3 Transmitter/Unit1/clock_ticks[1]:11 Transmitter/Unit1/clock_ticks[1]:10 2.123214
4 Transmitter/Unit1/clock_ticks[1]:7 Transmitter/Unit1/clock_ticks[1]:6 0.4946429
5 Transmitter/Unit1/clock_ticks[1]:8 Transmitter/Unit1/clock_ticks[1]:7 0.5
6 Transmitter/Unit1/clock_ticks[1]:8 Transmitter/Unit1/clock_ticks[1]:5 2.690179
7 Transmitter/Unit1/clock_ticks[1]:6 Transmitter\/Unit1\/add_62\/U1_1_1:A0 1
8 Transmitter/Unit1/clock_ticks[1]:4 Transmitter/Unit1/clock_ticks[1]:3 0.4946429
9 Transmitter/Unit1/clock_ticks[1]:5 Transmitter/Unit1/clock_ticks[1]:4 0.5
10 Transmitter/Unit1/clock_ticks[1]:3 Transmitter\/Unit1\/U16:A2 1

*END

*D_NET Transmitter/Unit1/clock_ticks[0] 0.9440498 //LENGTH 11.536 LUMPCC 0 DR

*CONN
*I Transmitter\/Unit1\/clock_ticks_reg[0]:Q O *L 0 *C 37.388 31.004
*I Transmitter\/Unit1\/add_62\/U1:A I *L 0.577904 *C 37.388 34.652
*I Transmitter\/Unit1\/add_62\/U1_1_1:B0 I *L 0.984521 *C 34.348 36.020
*I Transmitter\/Unit1\/U10:A2 I *L 1.005399 *C 33.132 32.828
*N Transmitter/Unit1/clock_ticks[0]:4 *C 33.132 32.842
*N Transmitter/Unit1/clock_ticks[0]:5 *C 33.132 34.639
*N Transmitter/Unit1/clock_ticks[0]:6 *C 33.145 34.652
*N Transmitter/Unit1/clock_ticks[0]:7 *C 34.348 36.007
*N Transmitter/Unit1/clock_ticks[0]:8 *C 34.348 34.666
*N Transmitter/Unit1/clock_ticks[0]:9 *C 34.348 34.652
*N Transmitter/Unit1/clock_ticks[0]:10 *C 37.375 34.652
*N Transmitter/Unit1/clock_ticks[0]:11 *C 37.388 34.639
*N Transmitter/Unit1/clock_ticks[0]:12 *C 37.388 31.018

*CAP
0 Transmitter\/Unit1\/clock_ticks_reg[0]:Q 0.001
1 Transmitter\/Unit1\/add_62\/U1:A 0.001
2 Transmitter\/Unit1\/add_62\/U1_1_1:B0 0.001
3 Transmitter\/Unit1\/U10:A2 0.001
4 Transmitter/Unit1/clock_ticks[0]:4 0.08304033
5 Transmitter/Unit1/clock_ticks[0]:5 0.08447301
6 Transmitter/Unit1/clock_ticks[0]:6 0.04968103
7 Transmitter/Unit1/clock_ticks[0]:7 0.06351792
8 Transmitter/Unit1/clock_ticks[0]:8 0.0649506
9 Transmitter/Unit1/clock_ticks[0]:9 0.1837033
10 Transmitter/Unit1/clock_ticks[0]:10 0.13165
11 Transmitter/Unit1/clock_ticks[0]:11 0.1383307
12 Transmitter/Unit1/clock_ticks[0]:12 0.1407029

*RES
0 Transmitter\/Unit1\/clock_ticks_reg[0]:Q Transmitter/Unit1/clock_ticks[0]:12 1
1 Transmitter/Unit1/clock_ticks[0]:11 Transmitter\/Unit1\/add_62\/U1:A 1
2 Transmitter/Unit1/clock_ticks[0]:11 Transmitter/Unit1/clock_ticks[0]:10 0.5
3 Transmitter/Unit1/clock_ticks[0]:12 Transmitter/Unit1/clock_ticks[0]:11 6.466071
4 Transmitter/Unit1/clock_ticks[0]:10 Transmitter/Unit1/clock_ticks[0]:9 5.404464
5 Transmitter/Unit1/clock_ticks[0]:8 Transmitter/Unit1/clock_ticks[0]:7 2.394643
6 Transmitter/Unit1/clock_ticks[0]:9 Transmitter/Unit1/clock_ticks[0]:8 0.5
7 Transmitter/Unit1/clock_ticks[0]:9 Transmitter/Unit1/clock_ticks[0]:6 2.147322
8 Transmitter/Unit1/clock_ticks[0]:7 Transmitter\/Unit1\/add_62\/U1_1_1:B0 1
9 Transmitter/Unit1/clock_ticks[0]:5 Transmitter/Unit1/clock_ticks[0]:4 3.208929
10 Transmitter/Unit1/clock_ticks[0]:6 Transmitter/Unit1/clock_ticks[0]:5 0.5
11 Transmitter/Unit1/clock_ticks[0]:4 Transmitter\/Unit1\/U10:A2 1

*END

*D_NET Transmitter/Unit1/add_62/carry[13] 0.3189261 //LENGTH 3.978 LUMPCC 0 DR

*CONN
*I Transmitter\/Unit1\/add_62\/U1_1_12:C1 O *L 0 *C 34.348 26.444
*I Transmitter\/Unit1\/add_62\/U2:A1 I *L 0.954271 *C 36.628 25.988
*N Transmitter/Unit1/add_62/carry[13]:2 *C 36.628 25.975
*N Transmitter/Unit1/add_62/carry[13]:3 *C 36.628 25.546
*N Transmitter/Unit1/add_62/carry[13]:4 *C 36.614 25.532
*N Transmitter/Unit1/add_62/carry[13]:5 *C 34.361 25.532
*N Transmitter/Unit1/add_62/carry[13]:6 *C 34.348 25.546
*N Transmitter/Unit1/add_62/carry[13]:7 *C 34.348 26.431

*CAP
0 Transmitter\/Unit1\/add_62\/U1_1_12:C1 0.001
1 Transmitter\/Unit1\/add_62\/U2:A1 0.001
2 Transmitter/Unit1/add_62/carry[13]:2 0.02069774
3 Transmitter/Unit1/add_62/carry[13]:3 0.02213042
4 Transmitter/Unit1/add_62/carry[13]:4 0.08954163
5 Transmitter/Unit1/add_62/carry[13]:5 0.08954163
6 Transmitter/Unit1/add_62/carry[13]:6 0.04822367
7 Transmitter/Unit1/add_62/carry[13]:7 0.04679099

*RES
0 Transmitter\/Unit1\/add_62\/U1_1_12:C1 Transmitter/Unit1/add_62/carry[13]:7 1
1 Transmitter/Unit1/add_62/carry[13]:2 Transmitter\/Unit1\/add_62\/U2:A1 1
2 Transmitter/Unit1/add_62/carry[13]:3 Transmitter/Unit1/add_62/carry[13]:2 0.7660714
3 Transmitter/Unit1/add_62/carry[13]:4 Transmitter/Unit1/add_62/carry[13]:3 0.5
4 Transmitter/Unit1/add_62/carry[13]:6 Transmitter/Unit1/add_62/carry[13]:5 0.5
5 Transmitter/Unit1/add_62/carry[13]:5 Transmitter/Unit1/add_62/carry[13]:4 4.023215
6 Transmitter/Unit1/add_62/carry[13]:7 Transmitter/Unit1/add_62/carry[13]:6 1.580357

*END

*D_NET Transmitter/Unit1/add_62/carry[12] 0.423416 //LENGTH 4.414 LUMPCC 0 DR

*CONN
*I Transmitter\/Unit1\/add_62\/U1_1_11:C1 O *L 0 *C 32.372 23.100
*I Transmitter\/Unit1\/add_62\/U1_1_12:B0 I *L 0.984521 *C 33.588 25.988
*N Transmitter/Unit1/add_62/carry[12]:2 *C 33.588 25.976
*N Transmitter/Unit1/add_62/carry[12]:3 *C 33.588 25.836
*N Transmitter/Unit1/add_62/carry[12]:4 *C 33.575 25.836
*N Transmitter/Unit1/add_62/carry[12]:5 *C 32.386 25.836
*N Transmitter/Unit1/add_62/carry[12]:6 *C 32.372 25.823
*N Transmitter/Unit1/add_62/carry[12]:7 *C 32.372 23.101

*CAP
0 Transmitter\/Unit1\/add_62\/U1_1_11:C1 0.001
1 Transmitter\/Unit1\/add_62\/U1_1_12:B0 0.001
2 Transmitter/Unit1/add_62/carry[12]:2 0.008670894
3 Transmitter/Unit1/add_62/carry[12]:3 0.01010357
4 Transmitter/Unit1/add_62/carry[12]:4 0.04926907
5 Transmitter/Unit1/add_62/carry[12]:5 0.04926907
6 Transmitter/Unit1/add_62/carry[12]:6 0.1527335
7 Transmitter/Unit1/add_62/carry[12]:7 0.15137

*RES
0 Transmitter\/Unit1\/add_62\/U1_1_11:C1 Transmitter/Unit1/add_62/carry[12]:7 1
1 Transmitter/Unit1/add_62/carry[12]:2 Transmitter\/Unit1\/add_62\/U1_1_12:B0 1
2 Transmitter/Unit1/add_62/carry[12]:3 Transmitter/Unit1/add_62/carry[12]:2 0.2325
3 Transmitter/Unit1/add_62/carry[12]:4 Transmitter/Unit1/add_62/carry[12]:3 0.5
4 Transmitter/Unit1/add_62/carry[12]:6 Transmitter/Unit1/add_62/carry[12]:5 0.5
5 Transmitter/Unit1/add_62/carry[12]:5 Transmitter/Unit1/add_62/carry[12]:4 2.123214
6 Transmitter/Unit1/add_62/carry[12]:7 Transmitter/Unit1/add_62/carry[12]:6 4.859822

*END

*D_NET Transmitter/Unit1/add_62/carry[11] 0.352811 //LENGTH 4.262 LUMPCC 0 DR

*CONN
*I Transmitter\/Unit1\/add_62\/U1_1_10:C1 O *L 0 *C 29.484 20.972
*I Transmitter\/Unit1\/add_62\/U1_1_11:B0 I *L 0.984521 *C 31.764 22.644
*N Transmitter/Unit1/add_62/carry[11]:2 *C 31.764 22.632
*N Transmitter/Unit1/add_62/carry[11]:3 *C 31.764 22.492
*N Transmitter/Unit1/add_62/carry[11]:4 *C 31.751 22.492
*N Transmitter/Unit1/add_62/carry[11]:5 *C 29.498 22.492
*N Transmitter/Unit1/add_62/carry[11]:6 *C 29.484 22.479
*N Transmitter/Unit1/add_62/carry[11]:7 *C 29.484 20.973

*CAP
0 Transmitter\/Unit1\/add_62\/U1_1_10:C1 0.001
1 Transmitter\/Unit1\/add_62\/U1_1_11:B0 0.001
2 Transmitter/Unit1/add_62/carry[11]:2 0.01223624
3 Transmitter/Unit1/add_62/carry[11]:3 0.01366892
4 Transmitter/Unit1/add_62/carry[11]:4 0.09916642
5 Transmitter/Unit1/add_62/carry[11]:5 0.09916642
6 Transmitter/Unit1/add_62/carry[11]:6 0.06396824
7 Transmitter/Unit1/add_62/carry[11]:7 0.06260474

*RES
0 Transmitter\/Unit1\/add_62\/U1_1_10:C1 Transmitter/Unit1/add_62/carry[11]:7 1
1 Transmitter/Unit1/add_62/carry[11]:2 Transmitter\/Unit1\/add_62\/U1_1_11:B0 1
2 Transmitter/Unit1/add_62/carry[11]:3 Transmitter/Unit1/add_62/carry[11]:2 0.2325
3 Transmitter/Unit1/add_62/carry[11]:4 Transmitter/Unit1/add_62/carry[11]:3 0.5
4 Transmitter/Unit1/add_62/carry[11]:6 Transmitter/Unit1/add_62/carry[11]:5 0.5
5 Transmitter/Unit1/add_62/carry[11]:5 Transmitter/Unit1/add_62/carry[11]:4 4.023214
6 Transmitter/Unit1/add_62/carry[11]:7 Transmitter/Unit1/add_62/carry[11]:6 2.688393

*END

*D_NET Transmitter/Unit1/add_62/carry[10] 0.4973636 //LENGTH 6.492 LUMPCC 0 DR

*CONN
*I Transmitter\/Unit1\/add_62\/U1_1_9:C1 O *L 0 *C 24.468 20.972
*I Transmitter\/Unit1\/add_62\/U1_1_10:B0 I *L 0.984521 *C 30.092 21.428
*N Transmitter/Unit1/add_62/carry[10]:2 *C 24.468 20.840
*N Transmitter/Unit1/add_62/carry[10]:3 *C 30.092 21.415
*N Transmitter/Unit1/add_62/carry[10]:4 *C 30.092 20.986
*N Transmitter/Unit1/add_62/carry[10]:5 *C 30.079 20.972
*N Transmitter/Unit1/add_62/carry[10]:6 *C 24.482 20.972
*N Transmitter/Unit1/add_62/carry[10]:7 *C 24.468 20.960

*CAP
0 Transmitter\/Unit1\/add_62\/U1_1_9:C1 0.001
1 Transmitter\/Unit1\/add_62\/U1_1_10:B0 0.001
2 Transmitter/Unit1/add_62/carry[10]:2 0.01292135
3 Transmitter/Unit1/add_62/carry[10]:3 0.01999115
4 Transmitter/Unit1/add_62/carry[10]:4 0.02142383
5 Transmitter/Unit1/add_62/carry[10]:5 0.2190837
6 Transmitter/Unit1/add_62/carry[10]:6 0.2171069
7 Transmitter/Unit1/add_62/carry[10]:7 0.004836571

*RES
0 Transmitter\/Unit1\/add_62\/U1_1_9:C1 Transmitter/Unit1/add_62/carry[10]:7 1
1 Transmitter/Unit1/add_62/carry[10]:3 Transmitter\/Unit1\/add_62\/U1_1_10:B0 1
2 Transmitter/Unit1/add_62/carry[10]:4 Transmitter/Unit1/add_62/carry[10]:3 0.7660715
3 Transmitter/Unit1/add_62/carry[10]:5 Transmitter/Unit1/add_62/carry[10]:4 0.5
4 Transmitter/Unit1/add_62/carry[10]:7 Transmitter/Unit1/add_62/carry[10]:6 0.5
5 Transmitter/Unit1/add_62/carry[10]:7 Transmitter/Unit1/add_62/carry[10]:2 0.1991667
6 Transmitter/Unit1/add_62/carry[10]:6 Transmitter/Unit1/add_62/carry[10]:5 9.994644

*END

*D_NET Transmitter/Unit1/add_62/carry[9] 0.2123745 //LENGTH 2.767 LUMPCC 0 DR

*CONN
*I Transmitter\/Unit1\/add_62\/U1_1_8:C1 O *L 0 *C 23.100 20.972
*I Transmitter\/Unit1\/add_62\/U1_1_9:B0 I *L 0.984521 *C 25.076 21.428
*N Transmitter/Unit1/add_62/carry[9]:2 *C 25.076 21.416
*N Transmitter/Unit1/add_62/carry[9]:3 *C 25.076 21.276
*N Transmitter/Unit1/add_62/carry[9]:4 *C 25.062 21.276
*N Transmitter/Unit1/add_62/carry[9]:5 *C 23.114 21.276
*N Transmitter/Unit1/add_62/carry[9]:6 *C 23.100 21.262
*N Transmitter/Unit1/add_62/carry[9]:7 *C 23.100 20.986

*CAP
0 Transmitter\/Unit1\/add_62\/U1_1_8:C1 0.001
1 Transmitter\/Unit1\/add_62\/U1_1_9:B0 0.001
2 Transmitter/Unit1/add_62/carry[9]:2 0.007156832
3 Transmitter/Unit1/add_62/carry[9]:3 0.00858951
4 Transmitter/Unit1/add_62/carry[9]:4 0.08256809
5 Transmitter/Unit1/add_62/carry[9]:5 0.08256809
6 Transmitter/Unit1/add_62/carry[9]:6 0.01546236
7 Transmitter/Unit1/add_62/carry[9]:7 0.01402968

*RES
0 Transmitter\/Unit1\/add_62\/U1_1_8:C1 Transmitter/Unit1/add_62/carry[9]:7 1
1 Transmitter/Unit1/add_62/carry[9]:2 Transmitter\/Unit1\/add_62\/U1_1_9:B0 1
2 Transmitter/Unit1/add_62/carry[9]:3 Transmitter/Unit1/add_62/carry[9]:2 0.2325
3 Transmitter/Unit1/add_62/carry[9]:4 Transmitter/Unit1/add_62/carry[9]:3 0.5
4 Transmitter/Unit1/add_62/carry[9]:6 Transmitter/Unit1/add_62/carry[9]:5 0.5
5 Transmitter/Unit1/add_62/carry[9]:5 Transmitter/Unit1/add_62/carry[9]:4 3.480357
6 Transmitter/Unit1/add_62/carry[9]:7 Transmitter/Unit1/add_62/carry[9]:6 0.4946429

*END

*D_NET Transmitter/Unit1/add_62/carry[8] 0.2593125 //LENGTH 3.206 LUMPCC 0 DR

*CONN
*I Transmitter\/Unit1\/add_62\/U1_1_7:C1 O *L 0 *C 22.188 24.316
*I Transmitter\/Unit1\/add_62\/U1_1_8:B0 I *L 0.984521 *C 22.340 21.428
*N Transmitter/Unit1/add_62/carry[8]:2 *C 22.340 21.442
*N Transmitter/Unit1/add_62/carry[8]:3 *C 22.340 24.316
*N Transmitter/Unit1/add_62/carry[8]:4 *C 22.201 24.316

*CAP
0 Transmitter\/Unit1\/add_62\/U1_1_7:C1 0.001
1 Transmitter\/Unit1\/add_62\/U1_1_8:B0 0.001
2 Transmitter/Unit1/add_62/carry[8]:2 0.1186867
3 Transmitter/Unit1/add_62/carry[8]:3 0.1324266
4 Transmitter/Unit1/add_62/carry[8]:4 0.006199252

*RES
0 Transmitter\/Unit1\/add_62\/U1_1_7:C1 Transmitter/Unit1/add_62/carry[8]:4 1
1 Transmitter/Unit1/add_62/carry[8]:2 Transmitter\/Unit1\/add_62\/U1_1_8:B0 1
2 Transmitter/Unit1/add_62/carry[8]:4 Transmitter/Unit1/add_62/carry[8]:3 0.2473214
3 Transmitter/Unit1/add_62/carry[8]:3 Transmitter/Unit1/add_62/carry[8]:2 5.133036

*END

*D_NET Transmitter/Unit1/add_62/carry[7] 0.9045898 //LENGTH 8.665 LUMPCC 0 DR

*CONN
*I Transmitter\/Unit1\/add_62\/U1_1_6:C1 O *L 0 *C 19.452 29.788
*I Transmitter\/Unit1\/add_62\/U1_1_7:B0 I *L 0.984521 *C 22.796 24.772
*N Transmitter/Unit1/add_62/carry[7]:2 *C 22.796 24.786
*N Transmitter/Unit1/add_62/carry[7]:3 *C 22.796 25.215
*N Transmitter/Unit1/add_62/carry[7]:4 *C 22.783 25.228
*N Transmitter/Unit1/add_62/carry[7]:5 *C 19.466 25.228
*N Transmitter/Unit1/add_62/carry[7]:6 *C 19.452 25.242
*N Transmitter/Unit1/add_62/carry[7]:7 *C 19.452 29.787

*CAP
0 Transmitter\/Unit1\/add_62\/U1_1_6:C1 0.001
1 Transmitter\/Unit1\/add_62\/U1_1_7:B0 0.001
2 Transmitter/Unit1/add_62/carry[7]:2 0.02103373
3 Transmitter/Unit1/add_62/carry[7]:3 0.02246641
4 Transmitter/Unit1/add_62/carry[7]:4 0.1425817
5 Transmitter/Unit1/add_62/carry[7]:5 0.1425817
6 Transmitter/Unit1/add_62/carry[7]:6 0.2876449
7 Transmitter/Unit1/add_62/carry[7]:7 0.2862814

*RES
0 Transmitter\/Unit1\/add_62\/U1_1_6:C1 Transmitter/Unit1/add_62/carry[7]:7 1
1 Transmitter/Unit1/add_62/carry[7]:2 Transmitter\/Unit1\/add_62\/U1_1_7:B0 1
2 Transmitter/Unit1/add_62/carry[7]:3 Transmitter/Unit1/add_62/carry[7]:2 0.7660714
3 Transmitter/Unit1/add_62/carry[7]:4 Transmitter/Unit1/add_62/carry[7]:3 0.5
4 Transmitter/Unit1/add_62/carry[7]:6 Transmitter/Unit1/add_62/carry[7]:5 0.5
5 Transmitter/Unit1/add_62/carry[7]:5 Transmitter/Unit1/add_62/carry[7]:4 5.923214
6 Transmitter/Unit1/add_62/carry[7]:7 Transmitter/Unit1/add_62/carry[7]:6 8.116965

*END

*D_NET Transmitter/Unit1/add_62/carry[6] 0.295417 //LENGTH 2.889 LUMPCC 0 DR

*CONN
*I Transmitter\/Unit1\/add_62\/U1_1_5:C1 O *L 0 *C 19.148 27.660
*I Transmitter\/Unit1\/add_62\/U1_1_6:B0 I *L 0.984521 *C 20.060 29.332
*N Transmitter/Unit1/add_62/carry[6]:2 *C 20.060 29.319
*N Transmitter/Unit1/add_62/carry[6]:3 *C 20.060 28.890
*N Transmitter/Unit1/add_62/carry[6]:4 *C 20.047 28.876
*N Transmitter/Unit1/add_62/carry[6]:5 *C 19.162 28.876
*N Transmitter/Unit1/add_62/carry[6]:6 *C 19.148 28.863
*N Transmitter/Unit1/add_62/carry[6]:7 *C 19.148 27.661

*CAP
0 Transmitter\/Unit1\/add_62\/U1_1_5:C1 0.001
1 Transmitter\/Unit1\/add_62\/U1_1_6:B0 0.001
2 Transmitter/Unit1/add_62/carry[6]:2 0.03085419
3 Transmitter/Unit1/add_62/carry[6]:3 0.03228687
4 Transmitter/Unit1/add_62/carry[6]:4 0.03869276
5 Transmitter/Unit1/add_62/carry[6]:5 0.03869276
6 Transmitter/Unit1/add_62/carry[6]:6 0.07712696
7 Transmitter/Unit1/add_62/carry[6]:7 0.07576346

*RES
0 Transmitter\/Unit1\/add_62\/U1_1_5:C1 Transmitter/Unit1/add_62/carry[6]:7 1
1 Transmitter/Unit1/add_62/carry[6]:2 Transmitter\/Unit1\/add_62\/U1_1_6:B0 1
2 Transmitter/Unit1/add_62/carry[6]:3 Transmitter/Unit1/add_62/carry[6]:2 0.7660715
3 Transmitter/Unit1/add_62/carry[6]:4 Transmitter/Unit1/add_62/carry[6]:3 0.5
4 Transmitter/Unit1/add_62/carry[6]:6 Transmitter/Unit1/add_62/carry[6]:5 0.5
5 Transmitter/Unit1/add_62/carry[6]:5 Transmitter/Unit1/add_62/carry[6]:4 1.580357
6 Transmitter/Unit1/add_62/carry[6]:7 Transmitter/Unit1/add_62/carry[6]:6 2.145536

*END

*D_NET Transmitter/Unit1/add_62/carry[5] 1.056047 //LENGTH 9.910 LUMPCC 0 DR

*CONN
*I Transmitter\/Unit1\/add_62\/U1_1_4:C1 O *L 0 *C 20.972 36.476
*I Transmitter\/Unit1\/add_62\/U1_1_5:B0 I *L 0.984521 *C 19.756 28.116
*N Transmitter/Unit1/add_62/carry[5]:2 *C 19.756 28.130
*N Transmitter/Unit1/add_62/carry[5]:3 *C 19.756 28.268
*N Transmitter/Unit1/add_62/carry[5]:4 *C 19.908 28.268
*N Transmitter/Unit1/add_62/carry[5]:5 *C 19.908 35.412
*N Transmitter/Unit1/add_62/carry[5]:6 *C 20.972 35.412
*N Transmitter/Unit1/add_62/carry[5]:7 *C 20.972 36.462

*CAP
0 Transmitter\/Unit1\/add_62\/U1_1_4:C1 0.001
1 Transmitter\/Unit1\/add_62\/U1_1_5:B0 0.001
2 Transmitter/Unit1/add_62/carry[5]:2 0.009693974
3 Transmitter/Unit1/add_62/carry[5]:3 0.0220819
4 Transmitter/Unit1/add_62/carry[5]:4 0.4162718
5 Transmitter/Unit1/add_62/carry[5]:5 0.4572319
6 Transmitter/Unit1/add_62/carry[5]:6 0.1010576
7 Transmitter/Unit1/add_62/carry[5]:7 0.04770948

*RES
0 Transmitter\/Unit1\/add_62\/U1_1_4:C1 Transmitter/Unit1/add_62/carry[5]:7 1
1 Transmitter/Unit1/add_62/carry[5]:2 Transmitter\/Unit1\/add_62\/U1_1_5:B0 1
2 Transmitter/Unit1/add_62/carry[5]:7 Transmitter/Unit1/add_62/carry[5]:6 1.875893
3 Transmitter/Unit1/add_62/carry[5]:3 Transmitter/Unit1/add_62/carry[5]:2 0.2473214
4 Transmitter/Unit1/add_62/carry[5]:4 Transmitter/Unit1/add_62/carry[5]:3 0.2714286
5 Transmitter/Unit1/add_62/carry[5]:5 Transmitter/Unit1/add_62/carry[5]:4 12.75714
6 Transmitter/Unit1/add_62/carry[5]:6 Transmitter/Unit1/add_62/carry[5]:5 1.9

*END

*D_NET Transmitter/Unit1/add_62/carry[4] 0.2083648 //LENGTH 3.223 LUMPCC 0 DR

*CONN
*I Transmitter\/Unit1\/add_62\/U1_1_3:C1 O *L 0 *C 24.164 36.476
*I Transmitter\/Unit1\/add_62\/U1_1_4:B0 I *L 0.984521 *C 21.732 36.020
*N Transmitter/Unit1/add_62/carry[4]:2 *C 21.732 36.020
*N Transmitter/Unit1/add_62/carry[4]:3 *C 21.732 36.160
*N Transmitter/Unit1/add_62/carry[4]:4 *C 21.745 36.172
*N Transmitter/Unit1/add_62/carry[4]:5 *C 24.151 36.172
*N Transmitter/Unit1/add_62/carry[4]:6 *C 24.164 36.186
*N Transmitter/Unit1/add_62/carry[4]:7 *C 24.164 36.462

*CAP
0 Transmitter\/Unit1\/add_62\/U1_1_3:C1 0.001
1 Transmitter\/Unit1\/add_62\/U1_1_4:B0 0.001
2 Transmitter/Unit1/add_62/carry[4]:2 0.007268421
3 Transmitter/Unit1/add_62/carry[4]:3 0.008701099
4 Transmitter/Unit1/add_62/carry[4]:4 0.08065015
5 Transmitter/Unit1/add_62/carry[4]:5 0.08065015
6 Transmitter/Unit1/add_62/carry[4]:6 0.01526383
7 Transmitter/Unit1/add_62/carry[4]:7 0.01383115

*RES
0 Transmitter\/Unit1\/add_62\/U1_1_3:C1 Transmitter/Unit1/add_62/carry[4]:7 1
1 Transmitter/Unit1/add_62/carry[4]:2 Transmitter\/Unit1\/add_62\/U1_1_4:B0 1
2 Transmitter/Unit1/add_62/carry[4]:3 Transmitter/Unit1/add_62/carry[4]:2 0.2325
3 Transmitter/Unit1/add_62/carry[4]:4 Transmitter/Unit1/add_62/carry[4]:3 0.5
4 Transmitter/Unit1/add_62/carry[4]:6 Transmitter/Unit1/add_62/carry[4]:5 0.5
5 Transmitter/Unit1/add_62/carry[4]:5 Transmitter/Unit1/add_62/carry[4]:4 4.294643
6 Transmitter/Unit1/add_62/carry[4]:7 Transmitter/Unit1/add_62/carry[4]:6 0.4946429

*END

*D_NET Transmitter/Unit1/add_62/carry[3] 0.2057523 //LENGTH 3.046 LUMPCC 0 DR

*CONN
*I Transmitter\/Unit1\/add_62\/U1_1_2:C1 O *L 0 *C 27.052 36.476
*I Transmitter\/Unit1\/add_62\/U1_1_3:B0 I *L 0.984521 *C 24.924 36.020
*N Transmitter/Unit1/add_62/carry[3]:2 *C 27.052 36.294
*N Transmitter/Unit1/add_62/carry[3]:3 *C 24.924 36.034
*N Transmitter/Unit1/add_62/carry[3]:4 *C 24.924 36.462
*N Transmitter/Unit1/add_62/carry[3]:5 *C 24.938 36.476
*N Transmitter/Unit1/add_62/carry[3]:6 *C 27.039 36.476
*N Transmitter/Unit1/add_62/carry[3]:7 *C 27.052 36.464

*CAP
0 Transmitter\/Unit1\/add_62\/U1_1_2:C1 0.001
1 Transmitter\/Unit1\/add_62\/U1_1_3:B0 0.001
2 Transmitter/Unit1/add_62/carry[3]:2 0.01464462
3 Transmitter/Unit1/add_62/carry[3]:3 0.01947939
4 Transmitter/Unit1/add_62/carry[3]:4 0.02091207
5 Transmitter/Unit1/add_62/carry[3]:5 0.07012434
6 Transmitter/Unit1/add_62/carry[3]:6 0.07012434
7 Transmitter/Unit1/add_62/carry[3]:7 0.008467508

*RES
0 Transmitter\/Unit1\/add_62\/U1_1_2:C1 Transmitter/Unit1/add_62/carry[3]:7 1
1 Transmitter/Unit1/add_62/carry[3]:3 Transmitter\/Unit1\/add_62\/U1_1_3:B0 1
2 Transmitter/Unit1/add_62/carry[3]:4 Transmitter/Unit1/add_62/carry[3]:3 0.7660714
3 Transmitter/Unit1/add_62/carry[3]:5 Transmitter/Unit1/add_62/carry[3]:4 0.5
4 Transmitter/Unit1/add_62/carry[3]:7 Transmitter/Unit1/add_62/carry[3]:6 0.5
5 Transmitter/Unit1/add_62/carry[3]:7 Transmitter/Unit1/add_62/carry[3]:2 0.2825
6 Transmitter/Unit1/add_62/carry[3]:6 Transmitter/Unit1/add_62/carry[3]:5 3.751786

*END

*D_NET Transmitter/Unit1/add_62/carry[2] 0.6161509 //LENGTH 7.910 LUMPCC 0 DR

*CONN
*I Transmitter\/Unit1\/add_62\/U1_1_1:C1 O *L 0 *C 34.956 36.476
*I Transmitter\/Unit1\/add_62\/U1_1_2:B0 I *L 0.984521 *C 27.812 36.020
*N Transmitter/Unit1/add_62/carry[2]:2 *C 27.812 36.020
*N Transmitter/Unit1/add_62/carry[2]:3 *C 27.812 36.160
*N Transmitter/Unit1/add_62/carry[2]:4 *C 27.826 36.172
*N Transmitter/Unit1/add_62/carry[2]:5 *C 34.943 36.172
*N Transmitter/Unit1/add_62/carry[2]:6 *C 34.956 36.186
*N Transmitter/Unit1/add_62/carry[2]:7 *C 34.956 36.475

*CAP
0 Transmitter\/Unit1\/add_62\/U1_1_1:C1 0.001
1 Transmitter\/Unit1\/add_62\/U1_1_2:B0 0.001
2 Transmitter/Unit1/add_62/carry[2]:2 0.00701284
3 Transmitter/Unit1/add_62/carry[2]:3 0.008445519
4 Transmitter/Unit1/add_62/carry[2]:4 0.285483
5 Transmitter/Unit1/add_62/carry[2]:5 0.285483
6 Transmitter/Unit1/add_62/carry[2]:6 0.01454502
7 Transmitter/Unit1/add_62/carry[2]:7 0.01318152

*RES
0 Transmitter\/Unit1\/add_62\/U1_1_1:C1 Transmitter/Unit1/add_62/carry[2]:7 1
1 Transmitter/Unit1/add_62/carry[2]:2 Transmitter\/Unit1\/add_62\/U1_1_2:B0 1
2 Transmitter/Unit1/add_62/carry[2]:3 Transmitter/Unit1/add_62/carry[2]:2 0.2325
3 Transmitter/Unit1/add_62/carry[2]:4 Transmitter/Unit1/add_62/carry[2]:3 0.5
4 Transmitter/Unit1/add_62/carry[2]:6 Transmitter/Unit1/add_62/carry[2]:5 0.5
5 Transmitter/Unit1/add_62/carry[2]:5 Transmitter/Unit1/add_62/carry[2]:4 12.70893
6 Transmitter/Unit1/add_62/carry[2]:7 Transmitter/Unit1/add_62/carry[2]:6 0.5169644

*END

*D_NET Transmitter/Unit3/next_state 0.5218832 //LENGTH 5.827 LUMPCC 0 DR

*CONN
*I Transmitter\/Unit3\/next_state_reg:Q O *L 0 *C 37.236 17.628
*I Transmitter\/Unit3\/U4:A1 I *L 0.608353 *C 35.412 14.588
*I Transmitter\/Unit3\/U19:A1 I *L 0.592288 *C 36.780 14.436
*N Transmitter/Unit3/next_state:3 *C 37.236 17.446
*N Transmitter/Unit3/next_state:4 *C 36.780 14.449
*N Transmitter/Unit3/next_state:5 *C 36.780 14.589
*N Transmitter/Unit3/next_state:6 *C 35.412 14.602
*N Transmitter/Unit3/next_state:7 *C 35.412 14.740
*N Transmitter/Unit3/next_state:8 *C 36.780 14.740
*N Transmitter/Unit3/next_state:9 *C 36.780 17.614
*N Transmitter/Unit3/next_state:10 *C 36.794 17.628
*N Transmitter/Unit3/next_state:11 *C 37.223 17.628
*N Transmitter/Unit3/next_state:12 *C 37.236 17.616

*CAP
0 Transmitter\/Unit3\/next_state_reg:Q 0.001
1 Transmitter\/Unit3\/U4:A1 0.001
2 Transmitter\/Unit3\/U19:A1 0.001
3 Transmitter/Unit3/next_state:3 0.0160749
4 Transmitter/Unit3/next_state:4 0.006909662
5 Transmitter/Unit3/next_state:5 0.01846109
6 Transmitter/Unit3/next_state:6 0.00970914
7 Transmitter/Unit3/next_state:7 0.08247104
8 Transmitter/Unit3/next_state:8 0.2107148
9 Transmitter/Unit3/next_state:9 0.131639
10 Transmitter/Unit3/next_state:10 0.01650294
11 Transmitter/Unit3/next_state:11 0.01650294
12 Transmitter/Unit3/next_state:12 0.009897789

*RES
0 Transmitter\/Unit3\/next_state_reg:Q Transmitter/Unit3/next_state:12 1
1 Transmitter/Unit3/next_state:9 Transmitter/Unit3/next_state:8 5.133036
2 Transmitter/Unit3/next_state:10 Transmitter/Unit3/next_state:9 0.5
3 Transmitter/Unit3/next_state:12 Transmitter/Unit3/next_state:11 0.5
4 Transmitter/Unit3/next_state:12 Transmitter/Unit3/next_state:3 0.2825
5 Transmitter/Unit3/next_state:11 Transmitter/Unit3/next_state:10 0.7660714
6 Transmitter/Unit3/next_state:4 Transmitter\/Unit3\/U19:A1 1
7 Transmitter/Unit3/next_state:6 Transmitter\/Unit3\/U4:A1 1
8 Transmitter/Unit3/next_state:7 Transmitter/Unit3/next_state:6 0.2473214
9 Transmitter/Unit3/next_state:8 Transmitter/Unit3/next_state:7 2.442857
10 Transmitter/Unit3/next_state:8 Transmitter/Unit3/next_state:5 0.2696429
11 Transmitter/Unit3/next_state:5 Transmitter/Unit3/next_state:4 0.2341667

*END

*D_NET Transmitter/Unit3/N11 0.8205961 //LENGTH 8.763 LUMPCC 0 DR

*CONN
*I Transmitter\/Unit3\/U17:Y O *L 0 *C 35.564 10.180
*I Transmitter\/Unit3\/stop_count_reg[0]:D I *L 0.540354 *C 31.156 11.274
*I Transmitter\/Unit3\/U13:A3 I *L 0.520528 *C 36.780 11.852
*N Transmitter/Unit3/N11:3 *C 36.780 11.838
*N Transmitter/Unit3/N11:4 *C 36.780 10.346
*N Transmitter/Unit3/N11:5 *C 36.767 10.332
*N Transmitter/Unit3/N11:6 *C 31.156 11.244
*N Transmitter/Unit3/N11:7 *C 31.156 11.231
*N Transmitter/Unit3/N11:8 *C 31.156 10.346
*N Transmitter/Unit3/N11:9 *C 31.170 10.332
*N Transmitter/Unit3/N11:10 *C 35.564 10.332
*N Transmitter/Unit3/N11:11 *C 35.564 10.319
*N Transmitter/Unit3/N11:12 *C 35.564 10.180

*CAP
0 Transmitter\/Unit3\/U17:Y 0.001
1 Transmitter\/Unit3\/stop_count_reg[0]:D 0.007209832
2 Transmitter\/Unit3\/U13:A3 0.001
3 Transmitter/Unit3/N11:3 0.08097254
4 Transmitter/Unit3/N11:4 0.08240522
5 Transmitter/Unit3/N11:5 0.05784767
6 Transmitter/Unit3/N11:6 0.005134434
7 Transmitter/Unit3/N11:7 0.04500114
8 Transmitter/Unit3/N11:8 0.04470433
9 Transmitter/Unit3/N11:9 0.2033949
10 Transmitter/Unit3/N11:10 0.2636148
11 Transmitter/Unit3/N11:11 0.01456974
12 Transmitter/Unit3/N11:12 0.01374153

*RES
0 Transmitter\/Unit3\/U17:Y Transmitter/Unit3/N11:12 1
1 Transmitter/Unit3/N11:4 Transmitter/Unit3/N11:3 2.666071
2 Transmitter/Unit3/N11:5 Transmitter/Unit3/N11:4 0.5
3 Transmitter/Unit3/N11:3 Transmitter\/Unit3\/U13:A3 1
4 Transmitter/Unit3/N11:11 Transmitter/Unit3/N11:10 0.5
5 Transmitter/Unit3/N11:10 Transmitter/Unit3/N11:9 7.847322
6 Transmitter/Unit3/N11:10 Transmitter/Unit3/N11:5 2.147322
7 Transmitter/Unit3/N11:12 Transmitter/Unit3/N11:11 0.2325
8 Transmitter/Unit3/N11:8 Transmitter/Unit3/N11:7 1.580357
9 Transmitter/Unit3/N11:9 Transmitter/Unit3/N11:8 0.5
10 Transmitter/Unit3/N11:6 Transmitter\/Unit3\/stop_count_reg[0]:D 0.02727273
11 Transmitter/Unit3/N11:7 Transmitter/Unit3/N11:6 1

*END

*D_NET Transmitter/Unit3/N12 0.4253918 //LENGTH 6.091 LUMPCC 0 DR

*CONN
*I Transmitter\/Unit3\/U14:Y O *L 0 *C 36.780 9.116
*I Transmitter\/Unit3\/stop_count_reg[1]:D I *L 0.540354 *C 31.308 9.268
*N Transmitter/Unit3/N12:2 *C 36.780 8.934
*N Transmitter/Unit3/N12:3 *C 31.308 9.255
*N Transmitter/Unit3/N12:4 *C 31.308 9.116
*N Transmitter/Unit3/N12:5 *C 31.322 9.116
*N Transmitter/Unit3/N12:6 *C 36.767 9.116
*N Transmitter/Unit3/N12:7 *C 36.780 9.104

*CAP
0 Transmitter\/Unit3\/U14:Y 0.001
1 Transmitter\/Unit3\/stop_count_reg[1]:D 0.001
2 Transmitter/Unit3/N12:2 0.01295219
3 Transmitter/Unit3/N12:3 0.006823255
4 Transmitter/Unit3/N12:4 0.008255932
5 Transmitter/Unit3/N12:5 0.1942628
6 Transmitter/Unit3/N12:6 0.1942628
7 Transmitter/Unit3/N12:7 0.006834792

*RES
0 Transmitter\/Unit3\/U14:Y Transmitter/Unit3/N12:7 1
1 Transmitter/Unit3/N12:3 Transmitter\/Unit3\/stop_count_reg[1]:D 1
2 Transmitter/Unit3/N12:4 Transmitter/Unit3/N12:3 0.2325
3 Transmitter/Unit3/N12:5 Transmitter/Unit3/N12:4 0.5
4 Transmitter/Unit3/N12:7 Transmitter/Unit3/N12:6 0.5
5 Transmitter/Unit3/N12:7 Transmitter/Unit3/N12:2 0.2825
6 Transmitter/Unit3/N12:6 Transmitter/Unit3/N12:5 9.723215

*END

*D_NET Transmitter/Unit3/N13 0.4017133 //LENGTH 5.326 LUMPCC 0 DR

*CONN
*I Transmitter\/Unit3\/U11:Y O *L 0 *C 31.764 13.068
*I Transmitter\/Unit3\/stop_count_reg[2]:D I *L 0.540354 *C 27.356 12.612
*N Transmitter/Unit3/N13:2 *C 31.764 12.886
*N Transmitter/Unit3/N13:3 *C 27.356 12.626
*N Transmitter/Unit3/N13:4 *C 27.356 13.055
*N Transmitter/Unit3/N13:5 *C 27.370 13.068
*N Transmitter/Unit3/N13:6 *C 31.751 13.068
*N Transmitter/Unit3/N13:7 *C 31.764 13.056

*CAP
0 Transmitter\/Unit3\/U11:Y 0.001
1 Transmitter\/Unit3\/stop_count_reg[2]:D 0.001
2 Transmitter/Unit3/N13:2 0.01389896
3 Transmitter/Unit3/N13:3 0.01999404
4 Transmitter/Unit3/N13:4 0.02142672
5 Transmitter/Unit3/N13:5 0.1683358
6 Transmitter/Unit3/N13:6 0.1683358
7 Transmitter/Unit3/N13:7 0.007721843

*RES
0 Transmitter\/Unit3\/U11:Y Transmitter/Unit3/N13:7 1
1 Transmitter/Unit3/N13:3 Transmitter\/Unit3\/stop_count_reg[2]:D 1
2 Transmitter/Unit3/N13:4 Transmitter/Unit3/N13:3 0.7660714
3 Transmitter/Unit3/N13:5 Transmitter/Unit3/N13:4 0.5
4 Transmitter/Unit3/N13:7 Transmitter/Unit3/N13:6 0.5
5 Transmitter/Unit3/N13:7 Transmitter/Unit3/N13:2 0.2825
6 Transmitter/Unit3/N13:6 Transmitter/Unit3/N13:5 7.823214

*END

*D_NET Transmitter/Unit3/N14 0.5495493 //LENGTH 6.542 LUMPCC 0 DR

*CONN
*I Transmitter\/Unit3\/U8:Y O *L 0 *C 32.372 14.284
*I Transmitter\/Unit3\/stop_count_reg[3]:D I *L 0.540354 *C 27.964 15.956
*N Transmitter/Unit3/N14:2 *C 32.372 14.102
*N Transmitter/Unit3/N14:3 *C 27.964 15.943
*N Transmitter/Unit3/N14:4 *C 27.964 14.298
*N Transmitter/Unit3/N14:5 *C 27.978 14.284
*N Transmitter/Unit3/N14:6 *C 32.358 14.284
*N Transmitter/Unit3/N14:7 *C 32.372 14.272

*CAP
0 Transmitter\/Unit3\/U8:Y 0.001
1 Transmitter\/Unit3\/stop_count_reg[3]:D 0.001
2 Transmitter/Unit3/N14:2 0.01661203
3 Transmitter/Unit3/N14:3 0.07585638
4 Transmitter/Unit3/N14:4 0.07728906
5 Transmitter/Unit3/N14:5 0.1836785
6 Transmitter/Unit3/N14:6 0.1836785
7 Transmitter/Unit3/N14:7 0.01043491

*RES
0 Transmitter\/Unit3\/U8:Y Transmitter/Unit3/N14:7 1
1 Transmitter/Unit3/N14:3 Transmitter\/Unit3\/stop_count_reg[3]:D 1
2 Transmitter/Unit3/N14:4 Transmitter/Unit3/N14:3 2.9375
3 Transmitter/Unit3/N14:5 Transmitter/Unit3/N14:4 0.5
4 Transmitter/Unit3/N14:7 Transmitter/Unit3/N14:6 0.5
5 Transmitter/Unit3/N14:7 Transmitter/Unit3/N14:2 0.2825
6 Transmitter/Unit3/N14:6 Transmitter/Unit3/N14:5 7.823215

*END

*D_NET Transmitter/Unit3/N18 0.3612368 //LENGTH 4.921 LUMPCC 0 DR

*CONN
*I Transmitter\/Unit3\/U6:Y O *L 0 *C 36.476 19.756
*I Transmitter\/Unit3\/next_state_reg:D I *L 0.540354 *C 33.588 18.084
*N Transmitter/Unit3/N18:2 *C 33.588 18.098
*N Transmitter/Unit3/N18:3 *C 33.588 19.439
*N Transmitter/Unit3/N18:4 *C 33.602 19.452
*N Transmitter/Unit3/N18:5 *C 36.311 19.452
*N Transmitter/Unit3/N18:6 *C 36.324 19.466
*N Transmitter/Unit3/N18:7 *C 36.324 19.756
*N Transmitter/Unit3/N18:8 *C 36.475 19.756

*CAP
0 Transmitter\/Unit3\/U6:Y 0.001
1 Transmitter\/Unit3\/next_state_reg:D 0.001
2 Transmitter/Unit3/N18:2 0.06381151
3 Transmitter/Unit3/N18:3 0.06524419
4 Transmitter/Unit3/N18:4 0.09440451
5 Transmitter/Unit3/N18:5 0.09440451
6 Transmitter/Unit3/N18:6 0.01354413
7 Transmitter/Unit3/N18:7 0.0237746
8 Transmitter/Unit3/N18:8 0.004053351

*RES
0 Transmitter\/Unit3\/U6:Y Transmitter/Unit3/N18:8 1
1 Transmitter/Unit3/N18:2 Transmitter\/Unit3\/next_state_reg:D 1
2 Transmitter/Unit3/N18:3 Transmitter/Unit3/N18:2 2.394643
3 Transmitter/Unit3/N18:4 Transmitter/Unit3/N18:3 0.5
4 Transmitter/Unit3/N18:6 Transmitter/Unit3/N18:5 0.5
5 Transmitter/Unit3/N18:5 Transmitter/Unit3/N18:4 4.837501
6 Transmitter/Unit3/N18:8 Transmitter/Unit3/N18:7 0.2696429
7 Transmitter/Unit3/N18:7 Transmitter/Unit3/N18:6 0.5187501

*END

*D_NET Transmitter/Unit3/n2 0.3088967 //LENGTH 3.390 LUMPCC 0 DR

*CONN
*I Transmitter\/Unit3\/U5:Y O *L 0 *C 34.236 13.048
*I Transmitter\/Unit3\/U4:A2 I *L 0.546428 *C 35.564 14.436
*N Transmitter/Unit3/n2:2 *C 35.564 14.436
*N Transmitter/Unit3/n2:3 *C 35.564 14.575
*N Transmitter/Unit3/n2:4 *C 35.550 14.588
*N Transmitter/Unit3/n2:5 *C 34.361 14.588
*N Transmitter/Unit3/n2:6 *C 34.348 14.575
*N Transmitter/Unit3/n2:7 *C 34.348 13.082
*N Transmitter/Unit3/n2:8 *C 34.336 13.068

*CAP
0 Transmitter\/Unit3\/U5:Y 0.01314702
1 Transmitter\/Unit3\/U4:A2 0.001
2 Transmitter/Unit3/n2:2 0.01438308
3 Transmitter/Unit3/n2:3 0.01581576
4 Transmitter/Unit3/n2:4 0.05292235
5 Transmitter/Unit3/n2:5 0.05292235
6 Transmitter/Unit3/n2:6 0.07366887
7 Transmitter/Unit3/n2:7 0.07396569
8 Transmitter/Unit3/n2:8 0.01107162

*RES
0 Transmitter\/Unit3\/U5:Y Transmitter/Unit3/n2:8 0.1658334
1 Transmitter/Unit3/n2:2 Transmitter\/Unit3\/U4:A2 1
2 Transmitter/Unit3/n2:3 Transmitter/Unit3/n2:2 0.2325
3 Transmitter/Unit3/n2:4 Transmitter/Unit3/n2:3 0.5
4 Transmitter/Unit3/n2:6 Transmitter/Unit3/n2:5 0.5
5 Transmitter/Unit3/n2:5 Transmitter/Unit3/n2:4 2.123214
6 Transmitter/Unit3/n2:8 Transmitter/Unit3/n2:7 1
7 Transmitter/Unit3/n2:7 Transmitter/Unit3/n2:6 2.666071

*END

*D_NET Transmitter/Unit3/n7 1.124495 //LENGTH 13.074 LUMPCC 0 DR

*CONN
*I Transmitter\/Unit3\/U19:Y O *L 0 *C 37.388 14.740
*I Transmitter\/Unit3\/U12:A3 I *L 0.44295 *C 37.236 12.764
*I Transmitter\/Unit3\/U13:A1 I *L 0.492533 *C 36.932 11.092
*I Transmitter\/Unit3\/U17:A1 I *L 0.592288 *C 36.035 9.597
*I Transmitter\/Unit3\/U14:A1 I *L 0.592288 *C 37.236 9.572
*I Transmitter\/Unit3\/U6:A3 I *L 0.520528 *C 36.932 18.844
*N Transmitter/Unit3/n7:6 *C 36.932 18.831
*N Transmitter/Unit3/n7:7 *C 36.932 16.730
*N Transmitter/Unit3/n7:8 *C 36.946 16.716
*N Transmitter/Unit3/n7:9 *C 37.375 16.716
*N Transmitter/Unit3/n7:10 *C 37.388 16.703
*N Transmitter/Unit3/n7:11 *C 37.236 9.585
*N Transmitter/Unit3/n7:12 *C 36.309 9.572
*N Transmitter/Unit3/n7:13 *C 36.324 9.585
*N Transmitter/Unit3/n7:14 *C 36.324 9.724
*N Transmitter/Unit3/n7:15 *C 37.236 9.724
*N Transmitter/Unit3/n7:16 *C 37.388 9.724
*N Transmitter/Unit3/n7:17 *C 36.932 11.079
*N Transmitter/Unit3/n7:18 *C 36.932 10.636
*N Transmitter/Unit3/n7:19 *C 37.388 10.636
*N Transmitter/Unit3/n7:20 *C 37.237 12.764
*N Transmitter/Unit3/n7:21 *C 37.388 12.764
*N Transmitter/Unit3/n7:22 *C 37.388 14.740

*CAP
0 Transmitter\/Unit3\/U19:Y 0.001
1 Transmitter\/Unit3\/U12:A3 0.001
2 Transmitter\/Unit3\/U13:A1 0.001
3 Transmitter\/Unit3\/U17:A1 0.02209712
4 Transmitter\/Unit3\/U14:A1 0.001
5 Transmitter\/Unit3\/U6:A3 0.001
6 Transmitter/Unit3/n7:6 0.1101222
7 Transmitter/Unit3/n7:7 0.1115548
8 Transmitter/Unit3/n7:8 0.01682142
9 Transmitter/Unit3/n7:9 0.01682142
10 Transmitter/Unit3/n7:10 0.07598303
11 Transmitter/Unit3/n7:11 0.005992108
12 Transmitter/Unit3/n7:12 0.02002172
13 Transmitter/Unit3/n7:13 0.01031504
14 Transmitter/Unit3/n7:14 0.04950126
15 Transmitter/Unit3/n7:15 0.05365073
16 Transmitter/Unit3/n7:16 0.05086035
17 Transmitter/Unit3/n7:17 0.02762761
18 Transmitter/Unit3/n7:18 0.0508166
19 Transmitter/Unit3/n7:19 0.1602601
20 Transmitter/Unit3/n7:20 0.003992841
21 Transmitter/Unit3/n7:21 0.1815315
22 Transmitter/Unit3/n7:22 0.1515255

*RES
0 Transmitter\/Unit3\/U19:Y Transmitter/Unit3/n7:22 1
1 Transmitter/Unit3/n7:22 Transmitter/Unit3/n7:21 3.528571
2 Transmitter/Unit3/n7:22 Transmitter/Unit3/n7:10 3.504465
3 Transmitter/Unit3/n7:20 Transmitter\/Unit3\/U12:A3 1
4 Transmitter/Unit3/n7:11 Transmitter\/Unit3\/U14:A1 1
5 Transmitter/Unit3/n7:10 Transmitter/Unit3/n7:9 0.5
6 Transmitter/Unit3/n7:9 Transmitter/Unit3/n7:8 0.7660714
7 Transmitter/Unit3/n7:7 Transmitter/Unit3/n7:6 3.751786
8 Transmitter/Unit3/n7:8 Transmitter/Unit3/n7:7 0.5
9 Transmitter/Unit3/n7:6 Transmitter\/Unit3\/U6:A3 1
10 Transmitter/Unit3/n7:17 Transmitter\/Unit3\/U13:A1 1
11 Transmitter/Unit3/n7:12 Transmitter\/Unit3\/U17:A1 0.5480001
12 Transmitter/Unit3/n7:13 Transmitter/Unit3/n7:12 1
13 Transmitter/Unit3/n7:14 Transmitter/Unit3/n7:13 0.2473215
14 Transmitter/Unit3/n7:15 Transmitter/Unit3/n7:14 1.628572
15 Transmitter/Unit3/n7:15 Transmitter/Unit3/n7:11 0.2473214
16 Transmitter/Unit3/n7:16 Transmitter/Unit3/n7:15 0.2714286
17 Transmitter/Unit3/n7:18 Transmitter/Unit3/n7:17 0.7901786
18 Transmitter/Unit3/n7:19 Transmitter/Unit3/n7:18 0.8142858
19 Transmitter/Unit3/n7:19 Transmitter/Unit3/n7:16 1.628572
20 Transmitter/Unit3/n7:21 Transmitter/Unit3/n7:20 0.2696429
21 Transmitter/Unit3/n7:21 Transmitter/Unit3/n7:19 3.8

*END

*D_NET Transmitter/Unit3/n8 0.7234728 //LENGTH 7.936 LUMPCC 0 DR

*CONN
*I Transmitter\/Unit3\/U13:Y O *L 0 *C 36.324 10.940
*I Transmitter\/Unit3\/U11:A2 I *L 0.458594 *C 32.524 13.068
*I Transmitter\/Unit3\/U8:A2 I *L 0.458594 *C 33.033 14.284
*N Transmitter/Unit3/n8:3 *C 32.980 14.284
*N Transmitter/Unit3/n8:4 *C 32.980 14.271
*N Transmitter/Unit3/n8:5 *C 32.524 12.886
*N Transmitter/Unit3/n8:6 *C 32.524 13.056
*N Transmitter/Unit3/n8:7 *C 32.538 13.068
*N Transmitter/Unit3/n8:8 *C 32.967 13.068
*N Transmitter/Unit3/n8:9 *C 32.980 13.068
*N Transmitter/Unit3/n8:10 *C 32.980 11.562
*N Transmitter/Unit3/n8:11 *C 32.994 11.548
*N Transmitter/Unit3/n8:12 *C 36.311 11.548
*N Transmitter/Unit3/n8:13 *C 36.324 11.535
*N Transmitter/Unit3/n8:14 *C 36.324 10.954

*CAP
0 Transmitter\/Unit3\/U13:Y 0.001
1 Transmitter\/Unit3\/U11:A2 0.001
2 Transmitter\/Unit3\/U8:A2 0.008089808
3 Transmitter/Unit3/n8:3 0.00601441
4 Transmitter/Unit3/n8:4 0.05947298
5 Transmitter/Unit3/n8:5 0.017241
6 Transmitter/Unit3/n8:6 0.01106388
7 Transmitter/Unit3/n8:7 0.0211443
8 Transmitter/Unit3/n8:8 0.0211443
9 Transmitter/Unit3/n8:9 0.135561
10 Transmitter/Unit3/n8:10 0.07401263
11 Transmitter/Unit3/n8:11 0.1476877
12 Transmitter/Unit3/n8:12 0.1476877
13 Transmitter/Unit3/n8:13 0.0368929
14 Transmitter/Unit3/n8:14 0.03546022

*RES
0 Transmitter\/Unit3\/U13:Y Transmitter/Unit3/n8:14 1
1 Transmitter/Unit3/n8:3 Transmitter\/Unit3\/U8:A2 0.09166668
2 Transmitter/Unit3/n8:4 Transmitter/Unit3/n8:3 1
3 Transmitter/Unit3/n8:10 Transmitter/Unit3/n8:9 2.690179
4 Transmitter/Unit3/n8:11 Transmitter/Unit3/n8:10 0.5
5 Transmitter/Unit3/n8:13 Transmitter/Unit3/n8:12 0.5
6 Transmitter/Unit3/n8:12 Transmitter/Unit3/n8:11 5.923215
7 Transmitter/Unit3/n8:14 Transmitter/Unit3/n8:13 1.0375
8 Transmitter/Unit3/n8:9 Transmitter/Unit3/n8:8 0.5
9 Transmitter/Unit3/n8:9 Transmitter/Unit3/n8:4 2.147322
10 Transmitter/Unit3/n8:8 Transmitter/Unit3/n8:7 0.7660714
11 Transmitter/Unit3/n8:6 Transmitter\/Unit3\/U11:A2 1
12 Transmitter/Unit3/n8:6 Transmitter/Unit3/n8:5 0.2825
13 Transmitter/Unit3/n8:7 Transmitter/Unit3/n8:6 0.5

*END

*D_NET Transmitter/Unit3/n9 0.1686915 //LENGTH 1.962 LUMPCC 0 DR

*CONN
*I Transmitter\/Unit3\/U9:Y O *L 0 *C 34.196 15.196
*I Transmitter\/Unit3\/U8:A3 I *L 0.535173 *C 32.828 15.196
*N Transmitter/Unit3/n9:2 *C 34.196 15.014
*N Transmitter/Unit3/n9:3 *C 32.828 15.014
*N Transmitter/Unit3/n9:4 *C 32.828 15.184
*N Transmitter/Unit3/n9:5 *C 32.842 15.196
*N Transmitter/Unit3/n9:6 *C 34.183 15.196
*N Transmitter/Unit3/n9:7 *C 34.196 15.184

*CAP
0 Transmitter\/Unit3\/U9:Y 0.001
1 Transmitter\/Unit3\/U8:A3 0.001
2 Transmitter/Unit3/n9:2 0.01170468
3 Transmitter/Unit3/n9:3 0.01278168
4 Transmitter/Unit3/n9:4 0.006604562
5 Transmitter/Unit3/n9:5 0.06466616
6 Transmitter/Unit3/n9:6 0.06466616
7 Transmitter/Unit3/n9:7 0.006268229

*RES
0 Transmitter\/Unit3\/U9:Y Transmitter/Unit3/n9:7 1
1 Transmitter/Unit3/n9:4 Transmitter\/Unit3\/U8:A3 1
2 Transmitter/Unit3/n9:4 Transmitter/Unit3/n9:3 0.2825
3 Transmitter/Unit3/n9:5 Transmitter/Unit3/n9:4 0.5
4 Transmitter/Unit3/n9:7 Transmitter/Unit3/n9:6 0.5
5 Transmitter/Unit3/n9:7 Transmitter/Unit3/n9:2 0.2825
6 Transmitter/Unit3/n9:6 Transmitter/Unit3/n9:5 2.394643

*END

*D_NET Transmitter/Unit3/n10 0.6728699 //LENGTH 7.736 LUMPCC 0 DR

*CONN
*I Transmitter\/Unit3\/U12:Y O *L 0 *C 36.324 12.764
*I Transmitter\/Unit3\/U9:A1 I *L 0.592288 *C 34.652 14.436
*I Transmitter\/Unit3\/U11:A3 I *L 0.535173 *C 32.220 12.156
*N Transmitter/Unit3/n10:3 *C 32.220 12.170
*N Transmitter/Unit3/n10:4 *C 32.220 13.663
*N Transmitter/Unit3/n10:5 *C 32.233 13.676
*N Transmitter/Unit3/n10:6 *C 34.652 14.423
*N Transmitter/Unit3/n10:7 *C 34.652 13.690
*N Transmitter/Unit3/n10:8 *C 34.652 13.676
*N Transmitter/Unit3/n10:9 *C 36.311 13.676
*N Transmitter/Unit3/n10:10 *C 36.324 13.663
*N Transmitter/Unit3/n10:11 *C 36.324 12.777

*CAP
0 Transmitter\/Unit3\/U12:Y 0.001
1 Transmitter\/Unit3\/U9:A1 0.001
2 Transmitter\/Unit3\/U11:A3 0.001
3 Transmitter/Unit3/n10:3 0.07684442
4 Transmitter/Unit3/n10:4 0.0782771
5 Transmitter/Unit3/n10:5 0.105296
6 Transmitter/Unit3/n10:6 0.04097269
7 Transmitter/Unit3/n10:7 0.04240537
8 Transmitter/Unit3/n10:8 0.1749457
9 Transmitter/Unit3/n10:9 0.06727751
10 Transmitter/Unit3/n10:10 0.04264189
11 Transmitter/Unit3/n10:11 0.04120921

*RES
0 Transmitter\/Unit3\/U12:Y Transmitter/Unit3/n10:11 1
1 Transmitter/Unit3/n10:10 Transmitter/Unit3/n10:9 0.5
2 Transmitter/Unit3/n10:9 Transmitter/Unit3/n10:8 2.961607
3 Transmitter/Unit3/n10:11 Transmitter/Unit3/n10:10 1.580357
4 Transmitter/Unit3/n10:7 Transmitter/Unit3/n10:6 1.308929
5 Transmitter/Unit3/n10:8 Transmitter/Unit3/n10:7 0.5
6 Transmitter/Unit3/n10:8 Transmitter/Unit3/n10:5 4.31875
7 Transmitter/Unit3/n10:6 Transmitter\/Unit3\/U9:A1 1
8 Transmitter/Unit3/n10:4 Transmitter/Unit3/n10:3 2.666072
9 Transmitter/Unit3/n10:5 Transmitter/Unit3/n10:4 0.5
10 Transmitter/Unit3/n10:3 Transmitter\/Unit3\/U11:A3 1

*END

*D_NET Transmitter/Unit3/n11 0.09556544 //LENGTH 1.205 LUMPCC 0 DR

*CONN
*I Transmitter\/Unit3\/U15:Y O *L 0 *C 37.236 8.508
*I Transmitter\/Unit3\/U14:A2 I *L 0.529633 *C 37.388 9.420
*N Transmitter/Unit3/n11:2 *C 37.387 9.420
*N Transmitter/Unit3/n11:3 *C 37.236 9.420
*N Transmitter/Unit3/n11:4 *C 37.236 8.521

*CAP
0 Transmitter\/Unit3\/U15:Y 0.001
1 Transmitter\/Unit3\/U14:A2 0.001
2 Transmitter/Unit3/n11:2 0.004403722
3 Transmitter/Unit3/n11:3 0.04968955
4 Transmitter/Unit3/n11:4 0.03947216

*RES
0 Transmitter\/Unit3\/U15:Y Transmitter/Unit3/n11:4 1
1 Transmitter/Unit3/n11:2 Transmitter\/Unit3\/U14:A2 1
2 Transmitter/Unit3/n11:4 Transmitter/Unit3/n11:3 1.604464
3 Transmitter/Unit3/n11:3 Transmitter/Unit3/n11:2 0.2696429

*END

*D_NET Transmitter/Unit3/n12 0.2955826 //LENGTH 2.381 LUMPCC 0 DR

*CONN
*I Transmitter\/Unit3\/U20:Y O *L 0 *C 35.564 13.524
*I Transmitter\/Unit3\/U19:A2 I *L 0.529633 *C 36.628 14.588
*N Transmitter/Unit3/n12:2 *C 36.627 14.588
*N Transmitter/Unit3/n12:3 *C 35.716 14.588
*N Transmitter/Unit3/n12:4 *C 35.716 14.284
*N Transmitter/Unit3/n12:5 *C 35.564 14.284
*N Transmitter/Unit3/n12:6 *C 35.564 13.538

*CAP
0 Transmitter\/Unit3\/U20:Y 0.001
1 Transmitter\/Unit3\/U19:A2 0.001
2 Transmitter/Unit3/n12:2 0.0527718
3 Transmitter/Unit3/n12:3 0.08447807
4 Transmitter/Unit3/n12:4 0.03718783
5 Transmitter/Unit3/n12:5 0.06570303
6 Transmitter/Unit3/n12:6 0.05344184

*RES
0 Transmitter\/Unit3\/U20:Y Transmitter/Unit3/n12:6 1
1 Transmitter/Unit3/n12:2 Transmitter\/Unit3\/U19:A2 1
2 Transmitter/Unit3/n12:6 Transmitter/Unit3/n12:5 1.333036
3 Transmitter/Unit3/n12:5 Transmitter/Unit3/n12:4 0.2714286
4 Transmitter/Unit3/n12:4 Transmitter/Unit3/n12:3 0.5428572
5 Transmitter/Unit3/n12:3 Transmitter/Unit3/n12:2 1.626786

*END

*D_NET Transmitter/Unit3/n1 1.17179 //LENGTH 11.283 LUMPCC 0 DR

*CONN
*I Transmitter\/Unit3\/stop_count_reg[1]:QN O *L 0 *C 35.108 9.876
*I Transmitter\/Unit3\/U5:A2 I *L 0.559393 *C 33.892 12.764
*I Transmitter\/Unit3\/U15:A1 I *L 1.174364 *C 36.020 8.052
*I Transmitter\/Unit3\/U13:A2 I *L 0.447801 *C 37.236 11.244
*N Transmitter/Unit3/n1:4 *C 37.236 11.062
*N Transmitter/Unit3/n1:5 *C 37.236 11.232
*N Transmitter/Unit3/n1:6 *C 37.223 11.244
*N Transmitter/Unit3/n1:7 *C 36.020 11.244
*N Transmitter/Unit3/n1:8 *C 36.020 11.231
*N Transmitter/Unit3/n1:9 *C 36.020 8.066
*N Transmitter/Unit3/n1:10 *C 36.020 9.724
*N Transmitter/Unit3/n1:11 *C 36.007 9.724
*N Transmitter/Unit3/n1:12 *C 33.892 12.751
*N Transmitter/Unit3/n1:13 *C 33.892 9.738
*N Transmitter/Unit3/n1:14 *C 33.906 9.724
*N Transmitter/Unit3/n1:15 *C 35.108 9.724
*N Transmitter/Unit3/n1:16 *C 35.108 9.738
*N Transmitter/Unit3/n1:17 *C 35.108 9.875

*CAP
0 Transmitter\/Unit3\/stop_count_reg[1]:QN 0.001
1 Transmitter\/Unit3\/U5:A2 0.001
2 Transmitter\/Unit3\/U15:A1 0.001
3 Transmitter\/Unit3\/U13:A2 0.001
4 Transmitter/Unit3/n1:4 0.01801612
5 Transmitter/Unit3/n1:5 0.01183901
6 Transmitter/Unit3/n1:6 0.08896241
7 Transmitter/Unit3/n1:7 0.08896241
8 Transmitter/Unit3/n1:8 0.09854198
9 Transmitter/Unit3/n1:9 0.08645235
10 Transmitter/Unit3/n1:10 0.1887992
11 Transmitter/Unit3/n1:11 0.04028572
12 Transmitter/Unit3/n1:12 0.189193
13 Transmitter/Unit3/n1:13 0.1906257
14 Transmitter/Unit3/n1:14 0.05368011
15 Transmitter/Unit3/n1:15 0.09633805
16 Transmitter/Unit3/n1:16 0.008763253
17 Transmitter/Unit3/n1:17 0.007330575

*RES
0 Transmitter\/Unit3\/stop_count_reg[1]:QN Transmitter/Unit3/n1:17 1
1 Transmitter/Unit3/n1:5 Transmitter\/Unit3\/U13:A2 1
2 Transmitter/Unit3/n1:5 Transmitter/Unit3/n1:4 0.2825
3 Transmitter/Unit3/n1:6 Transmitter/Unit3/n1:5 0.5
4 Transmitter/Unit3/n1:8 Transmitter/Unit3/n1:7 0.5
5 Transmitter/Unit3/n1:7 Transmitter/Unit3/n1:6 2.147322
6 Transmitter/Unit3/n1:9 Transmitter\/Unit3\/U15:A1 1
7 Transmitter/Unit3/n1:10 Transmitter/Unit3/n1:9 2.961608
8 Transmitter/Unit3/n1:10 Transmitter/Unit3/n1:8 2.690179
9 Transmitter/Unit3/n1:11 Transmitter/Unit3/n1:10 0.5
10 Transmitter/Unit3/n1:16 Transmitter/Unit3/n1:15 0.5
11 Transmitter/Unit3/n1:15 Transmitter/Unit3/n1:14 2.147322
12 Transmitter/Unit3/n1:15 Transmitter/Unit3/n1:11 1.604464
13 Transmitter/Unit3/n1:17 Transmitter/Unit3/n1:16 0.2455357
14 Transmitter/Unit3/n1:13 Transmitter/Unit3/n1:12 5.380358
15 Transmitter/Unit3/n1:14 Transmitter/Unit3/n1:13 0.5
16 Transmitter/Unit3/n1:12 Transmitter\/Unit3\/U5:A2 1

*END

*D_NET Transmitter/Unit3/n3 0.5365052 //LENGTH 6.075 LUMPCC 0 DR

*CONN
*I Transmitter\/Unit3\/stop_count_reg[2]:QN O *L 0 *C 31.186 13.165
*I Transmitter\/Unit3\/U11:A4 I *L 0.545401 *C 32.372 12.612
*I Transmitter\/Unit3\/U20:A4 I *L 0.540252 *C 34.956 12.764
*I Transmitter\/Unit3\/U5:A3 I *L 0.55484 *C 33.740 12.916
*N Transmitter/Unit3/n3:4 *C 33.740 12.904
*N Transmitter/Unit3/n3:5 *C 34.956 12.582
*N Transmitter/Unit3/n3:6 *C 34.956 12.752
*N Transmitter/Unit3/n3:7 *C 34.943 12.764
*N Transmitter/Unit3/n3:8 *C 33.754 12.764
*N Transmitter/Unit3/n3:9 *C 33.740 12.763
*N Transmitter/Unit3/n3:10 *C 33.740 12.474
*N Transmitter/Unit3/n3:11 *C 33.727 12.460
*N Transmitter/Unit3/n3:12 *C 32.372 12.600
*N Transmitter/Unit3/n3:13 *C 32.372 12.460
*N Transmitter/Unit3/n3:14 *C 32.372 12.460
*N Transmitter/Unit3/n3:15 *C 31.170 12.460
*N Transmitter/Unit3/n3:16 *C 31.156 12.474
*N Transmitter/Unit3/n3:17 *C 31.156 13.207

*CAP
0 Transmitter\/Unit3\/stop_count_reg[2]:QN 0.001
1 Transmitter\/Unit3\/U11:A4 0.001
2 Transmitter\/Unit3\/U20:A4 0.001
3 Transmitter\/Unit3\/U5:A3 0.001
4 Transmitter/Unit3/n3:4 0.01325902
5 Transmitter/Unit3/n3:5 0.01952716
6 Transmitter/Unit3/n3:6 0.01335004
7 Transmitter/Unit3/n3:7 0.05104541
8 Transmitter/Unit3/n3:8 0.05104541
9 Transmitter/Unit3/n3:9 0.04118961
10 Transmitter/Unit3/n3:10 0.0241257
11 Transmitter/Unit3/n3:11 0.05477624
12 Transmitter/Unit3/n3:12 0.01285254
13 Transmitter/Unit3/n3:13 0.01428522
14 Transmitter/Unit3/n3:14 0.1056229
15 Transmitter/Unit3/n3:15 0.04847441
16 Transmitter/Unit3/n3:16 0.04219216
17 Transmitter/Unit3/n3:17 0.04075949

*RES
0 Transmitter\/Unit3\/stop_count_reg[2]:QN Transmitter/Unit3/n3:17 1
1 Transmitter/Unit3/n3:4 Transmitter\/Unit3\/U5:A3 1
2 Transmitter/Unit3/n3:9 Transmitter/Unit3/n3:8 0.5
3 Transmitter/Unit3/n3:9 Transmitter/Unit3/n3:4 0.2341667
4 Transmitter/Unit3/n3:8 Transmitter/Unit3/n3:7 2.123214
5 Transmitter/Unit3/n3:6 Transmitter\/Unit3\/U20:A4 1
6 Transmitter/Unit3/n3:6 Transmitter/Unit3/n3:5 0.2825
7 Transmitter/Unit3/n3:7 Transmitter/Unit3/n3:6 0.5
8 Transmitter/Unit3/n3:10 Transmitter/Unit3/n3:9 0.5169644
9 Transmitter/Unit3/n3:11 Transmitter/Unit3/n3:10 0.5
10 Transmitter/Unit3/n3:13 Transmitter/Unit3/n3:12 0.2325
11 Transmitter/Unit3/n3:14 Transmitter/Unit3/n3:13 0.5
12 Transmitter/Unit3/n3:14 Transmitter/Unit3/n3:11 2.41875
13 Transmitter/Unit3/n3:12 Transmitter\/Unit3\/U11:A4 1
14 Transmitter/Unit3/n3:16 Transmitter/Unit3/n3:15 0.5
15 Transmitter/Unit3/n3:15 Transmitter/Unit3/n3:14 2.147322
16 Transmitter/Unit3/n3:17 Transmitter/Unit3/n3:16 1.308929

*END

*D_NET Transmitter/Unit3/n4 0.7024122 //LENGTH 6.196 LUMPCC 0 DR

*CONN
*I Transmitter\/Unit3\/stop_count_reg[0]:QN O *L 0 *C 34.804 10.636
*I Transmitter\/Unit3\/U5:A1 I *L 0.654877 *C 34.044 12.916
*I Transmitter\/Unit3\/U17:A2 I *L 0.529633 *C 36.172 9.420
*N Transmitter/Unit3/n4:3 *C 34.804 10.454
*N Transmitter/Unit3/n4:4 *C 36.172 9.434
*N Transmitter/Unit3/n4:5 *C 36.172 10.623
*N Transmitter/Unit3/n4:6 *C 36.159 10.636
*N Transmitter/Unit3/n4:7 *C 34.044 12.902
*N Transmitter/Unit3/n4:8 *C 34.044 10.649
*N Transmitter/Unit3/n4:9 *C 34.058 10.636
*N Transmitter/Unit3/n4:10 *C 34.804 10.636
*N Transmitter/Unit3/n4:11 *C 34.804 10.623

*CAP
0 Transmitter\/Unit3\/stop_count_reg[0]:QN 0.001
1 Transmitter\/Unit3\/U5:A1 0.001
2 Transmitter\/Unit3\/U17:A2 0.001
3 Transmitter/Unit3/n4:3 0.01830928
4 Transmitter/Unit3/n4:4 0.08672772
5 Transmitter/Unit3/n4:5 0.0881604
6 Transmitter/Unit3/n4:6 0.0657884
7 Transmitter/Unit3/n4:7 0.1410134
8 Transmitter/Unit3/n4:8 0.142446
9 Transmitter/Unit3/n4:9 0.0383371
10 Transmitter/Unit3/n4:10 0.1064977
11 Transmitter/Unit3/n4:11 0.01213216

*RES
0 Transmitter\/Unit3\/stop_count_reg[0]:QN Transmitter/Unit3/n4:11 1
1 Transmitter/Unit3/n4:5 Transmitter/Unit3/n4:4 2.123214
2 Transmitter/Unit3/n4:6 Transmitter/Unit3/n4:5 0.5
3 Transmitter/Unit3/n4:4 Transmitter\/Unit3\/U17:A2 1
4 Transmitter/Unit3/n4:11 Transmitter/Unit3/n4:10 0.5
5 Transmitter/Unit3/n4:11 Transmitter/Unit3/n4:3 0.2825
6 Transmitter/Unit3/n4:10 Transmitter/Unit3/n4:9 1.333036
7 Transmitter/Unit3/n4:10 Transmitter/Unit3/n4:6 2.41875
8 Transmitter/Unit3/n4:8 Transmitter/Unit3/n4:7 4.023215
9 Transmitter/Unit3/n4:9 Transmitter/Unit3/n4:8 0.5
10 Transmitter/Unit3/n4:7 Transmitter\/Unit3\/U5:A1 1

*END

*D_NET Transmitter/Unit3/n5 0.6174014 //LENGTH 7.522 LUMPCC 0 DR

*CONN
*I Transmitter\/Unit3\/stop_count_reg[3]:QN O *L 0 *C 31.619 15.516
*I Transmitter\/Unit3\/U5:A4 I *L 0.540252 *C 33.588 12.764
*I Transmitter\/Unit3\/U9:A2 I *L 0.529633 *C 34.804 14.588
*N Transmitter/Unit3/n5:3 *C 31.612 15.318
*N Transmitter/Unit3/n5:4 *C 34.804 14.602
*N Transmitter/Unit3/n5:5 *C 34.804 15.487
*N Transmitter/Unit3/n5:6 *C 34.791 15.500
*N Transmitter/Unit3/n5:7 *C 33.588 12.777
*N Transmitter/Unit3/n5:8 *C 33.588 15.487
*N Transmitter/Unit3/n5:9 *C 33.588 15.500
*N Transmitter/Unit3/n5:10 *C 31.626 15.500
*N Transmitter/Unit3/n5:11 *C 31.612 15.488
*N Transmitter/Unit3/n5:12 *C 31.612 15.500

*CAP
0 Transmitter\/Unit3\/stop_count_reg[3]:QN 0.01095639
1 Transmitter\/Unit3\/U5:A4 0.001
2 Transmitter\/Unit3\/U9:A2 0.001
3 Transmitter/Unit3/n5:3 0.0168182
4 Transmitter/Unit3/n5:4 0.03853036
5 Transmitter/Unit3/n5:5 0.03996304
6 Transmitter/Unit3/n5:6 0.0440128
7 Transmitter/Unit3/n5:7 0.1240869
8 Transmitter/Unit3/n5:8 0.1255196
9 Transmitter/Unit3/n5:9 0.1203238
10 Transmitter/Unit3/n5:10 0.07393878
11 Transmitter/Unit3/n5:11 0.01237058
12 Transmitter/Unit3/n5:12 0.008880991

*RES
0 Transmitter\/Unit3\/stop_count_reg[3]:QN Transmitter/Unit3/n5:12 0.09166667
1 Transmitter/Unit3/n5:5 Transmitter/Unit3/n5:4 1.580357
2 Transmitter/Unit3/n5:6 Transmitter/Unit3/n5:5 0.5
3 Transmitter/Unit3/n5:4 Transmitter\/Unit3\/U9:A2 1
4 Transmitter/Unit3/n5:8 Transmitter/Unit3/n5:7 4.837501
5 Transmitter/Unit3/n5:9 Transmitter/Unit3/n5:8 0.5
6 Transmitter/Unit3/n5:9 Transmitter/Unit3/n5:6 2.147322
7 Transmitter/Unit3/n5:7 Transmitter\/Unit3\/U5:A4 1
8 Transmitter/Unit3/n5:11 Transmitter/Unit3/n5:10 0.5
9 Transmitter/Unit3/n5:11 Transmitter/Unit3/n5:3 0.2825
10 Transmitter/Unit3/n5:10 Transmitter/Unit3/n5:9 3.504465
11 Transmitter/Unit3/n5:12 Transmitter/Unit3/n5:11 1

*END

*D_NET Transmitter/Unit3/n6 0.1582583 //LENGTH 2.061 LUMPCC 0 DR

*CONN
*I Transmitter\/Unit3\/next_state_reg:QN O *L 0 *C 37.388 17.476
*I Transmitter\/Unit3\/U6:A2 I *L 0.447801 *C 37.388 19.452
*N Transmitter/Unit3/n6:2 *C 37.388 19.439
*N Transmitter/Unit3/n6:3 *C 37.388 17.477

*CAP
0 Transmitter\/Unit3\/next_state_reg:QN 0.001
1 Transmitter\/Unit3\/U6:A2 0.001
2 Transmitter/Unit3/n6:2 0.07812913
3 Transmitter/Unit3/n6:3 0.07812913

*RES
0 Transmitter\/Unit3\/next_state_reg:QN Transmitter/Unit3/n6:3 1
1 Transmitter/Unit3/n6:2 Transmitter\/Unit3\/U6:A2 1
2 Transmitter/Unit3/n6:3 Transmitter/Unit3/n6:2 3.502679

*END

*D_NET Transmitter/Unit3/stop_count[3] 0.6859651 //LENGTH 7.238 LUMPCC 0 DR

*CONN
*I Transmitter\/Unit3\/stop_count_reg[3]:Q O *L 0 *C 31.308 15.500
*I Transmitter\/Unit3\/U8:A1 I *L 0.467813 *C 33.284 14.588
*I Transmitter\/Unit3\/U20:A1 I *L 0.654877 *C 35.412 12.916
*N Transmitter/Unit3/stop_count[3]:3 *C 35.412 12.930
*N Transmitter/Unit3/stop_count[3]:4 *C 35.412 14.271
*N Transmitter/Unit3/stop_count[3]:5 *C 35.398 14.284
*N Transmitter/Unit3/stop_count[3]:6 *C 33.297 14.284
*N Transmitter/Unit3/stop_count[3]:7 *C 33.284 14.298
*N Transmitter/Unit3/stop_count[3]:8 *C 33.284 14.588
*N Transmitter/Unit3/stop_count[3]:9 *C 33.284 14.879
*N Transmitter/Unit3/stop_count[3]:10 *C 33.270 14.892
*N Transmitter/Unit3/stop_count[3]:11 *C 31.322 14.892
*N Transmitter/Unit3/stop_count[3]:12 *C 31.308 14.905
*N Transmitter/Unit3/stop_count[3]:13 *C 31.308 15.487

*CAP
0 Transmitter\/Unit3\/stop_count_reg[3]:Q 0.001
1 Transmitter\/Unit3\/U8:A1 0.001
2 Transmitter\/Unit3\/U20:A1 0.001
3 Transmitter/Unit3/stop_count[3]:3 0.09251691
4 Transmitter/Unit3/stop_count[3]:4 0.09394959
5 Transmitter/Unit3/stop_count[3]:5 0.09957624
6 Transmitter/Unit3/stop_count[3]:6 0.09957624
7 Transmitter/Unit3/stop_count[3]:7 0.01612351
8 Transmitter/Unit3/stop_count[3]:8 0.03144621
9 Transmitter/Unit3/stop_count[3]:9 0.01438315
10 Transmitter/Unit3/stop_count[3]:10 0.07877984
11 Transmitter/Unit3/stop_count[3]:11 0.07877984
12 Transmitter/Unit3/stop_count[3]:12 0.03873505
13 Transmitter/Unit3/stop_count[3]:13 0.0390985

*RES
0 Transmitter\/Unit3\/stop_count_reg[3]:Q Transmitter/Unit3/stop_count[3]:13 1
1 Transmitter/Unit3/stop_count[3]:8 Transmitter\/Unit3\/U8:A1 1
2 Transmitter/Unit3/stop_count[3]:8 Transmitter/Unit3/stop_count[3]:7 0.5187501
3 Transmitter/Unit3/stop_count[3]:7 Transmitter/Unit3/stop_count[3]:6 0.5
4 Transmitter/Unit3/stop_count[3]:6 Transmitter/Unit3/stop_count[3]:5 3.751786
5 Transmitter/Unit3/stop_count[3]:4 Transmitter/Unit3/stop_count[3]:3 2.394643
6 Transmitter/Unit3/stop_count[3]:5 Transmitter/Unit3/stop_count[3]:4 0.5
7 Transmitter/Unit3/stop_count[3]:3 Transmitter\/Unit3\/U20:A1 1
8 Transmitter/Unit3/stop_count[3]:9 Transmitter/Unit3/stop_count[3]:8 0.5187501
9 Transmitter/Unit3/stop_count[3]:10 Transmitter/Unit3/stop_count[3]:9 0.5
10 Transmitter/Unit3/stop_count[3]:12 Transmitter/Unit3/stop_count[3]:11 0.5
11 Transmitter/Unit3/stop_count[3]:11 Transmitter/Unit3/stop_count[3]:10 3.480358
12 Transmitter/Unit3/stop_count[3]:13 Transmitter/Unit3/stop_count[3]:12 1.0375

*END

*D_NET Transmitter/Unit3/stop_count[2] 0.4461505 //LENGTH 4.664 LUMPCC 0 DR

*CONN
*I Transmitter\/Unit3\/stop_count_reg[2]:Q O *L 0 *C 31.034 12.916
*I Transmitter\/Unit3\/U11:A1 I *L 0.467813 *C 32.676 12.764
*I Transmitter\/Unit3\/U8:A4 I *L 0.545401 *C 32.980 14.740
*N Transmitter/Unit3/stop_count[2]:3 *C 32.980 14.727
*N Transmitter/Unit3/stop_count[2]:4 *C 32.980 14.436
*N Transmitter/Unit3/stop_count[2]:5 *C 32.676 14.436
*N Transmitter/Unit3/stop_count[2]:6 *C 32.676 12.777
*N Transmitter/Unit3/stop_count[2]:7 *C 32.663 12.764
*N Transmitter/Unit3/stop_count[2]:8 *C 31.018 12.764
*N Transmitter/Unit3/stop_count[2]:9 *C 31.004 12.764
*N Transmitter/Unit3/stop_count[2]:10 *C 31.004 12.904
*N Transmitter/Unit3/stop_count[2]:11 *C 31.004 12.916

*CAP
0 Transmitter\/Unit3\/stop_count_reg[2]:Q 0.01238905
1 Transmitter\/Unit3\/U11:A1 0.001
2 Transmitter\/Unit3\/U8:A4 0.001
3 Transmitter/Unit3/stop_count[2]:3 0.01479038
4 Transmitter/Unit3/stop_count[2]:4 0.03347826
5 Transmitter/Unit3/stop_count[2]:5 0.1066055
6 Transmitter/Unit3/stop_count[2]:6 0.08554542
7 Transmitter/Unit3/stop_count[2]:7 0.07891075
8 Transmitter/Unit3/stop_count[2]:8 0.07891075
9 Transmitter/Unit3/stop_count[2]:9 0.01145498
10 Transmitter/Unit3/stop_count[2]:10 0.0117518
11 Transmitter/Unit3/stop_count[2]:11 0.01031365

*RES
0 Transmitter\/Unit3\/stop_count_reg[2]:Q Transmitter/Unit3/stop_count[2]:11 0.07545455
1 Transmitter/Unit3/stop_count[2]:3 Transmitter\/Unit3\/U8:A4 1
2 Transmitter/Unit3/stop_count[2]:6 Transmitter\/Unit3\/U11:A1 1
3 Transmitter/Unit3/stop_count[2]:6 Transmitter/Unit3/stop_count[2]:5 2.961607
4 Transmitter/Unit3/stop_count[2]:7 Transmitter/Unit3/stop_count[2]:6 0.5
5 Transmitter/Unit3/stop_count[2]:9 Transmitter/Unit3/stop_count[2]:8 0.5
6 Transmitter/Unit3/stop_count[2]:8 Transmitter/Unit3/stop_count[2]:7 2.9375
7 Transmitter/Unit3/stop_count[2]:11 Transmitter/Unit3/stop_count[2]:10 1
8 Transmitter/Unit3/stop_count[2]:10 Transmitter/Unit3/stop_count[2]:9 0.2325
9 Transmitter/Unit3/stop_count[2]:5 Transmitter/Unit3/stop_count[2]:4 0.5428572
10 Transmitter/Unit3/stop_count[2]:4 Transmitter/Unit3/stop_count[2]:3 0.5187501

*END

*D_NET Transmitter/Unit3/stop_count[1] 0.5658329 //LENGTH 5.698 LUMPCC 0 DR

*CONN
*I Transmitter\/Unit3\/stop_count_reg[1]:Q O *L 0 *C 34.956 9.724
*I Transmitter\/Unit3\/U20:A2 I *L 0.559393 *C 35.260 12.764
*I Transmitter\/Unit3\/U12:A1 I *L 0.531407 *C 36.932 12.764
*N Transmitter/Unit3/stop_count[1]:3 *C 36.932 12.582
*N Transmitter/Unit3/stop_count[1]:4 *C 36.932 12.752
*N Transmitter/Unit3/stop_count[1]:5 *C 36.919 12.764
*N Transmitter/Unit3/stop_count[1]:6 *C 35.273 12.764
*N Transmitter/Unit3/stop_count[1]:7 *C 35.260 12.751
*N Transmitter/Unit3/stop_count[1]:8 *C 35.260 11.866
*N Transmitter/Unit3/stop_count[1]:9 *C 35.247 11.852
*N Transmitter/Unit3/stop_count[1]:10 *C 34.970 11.852
*N Transmitter/Unit3/stop_count[1]:11 *C 34.956 11.838
*N Transmitter/Unit3/stop_count[1]:12 *C 34.956 9.738

*CAP
0 Transmitter\/Unit3\/stop_count_reg[1]:Q 0.001
1 Transmitter\/Unit3\/U20:A2 0.001
2 Transmitter\/Unit3\/U12:A1 0.001
3 Transmitter/Unit3/stop_count[1]:3 0.0189774
4 Transmitter/Unit3/stop_count[1]:4 0.01280029
5 Transmitter/Unit3/stop_count[1]:5 0.07213573
6 Transmitter/Unit3/stop_count[1]:6 0.07213573
7 Transmitter/Unit3/stop_count[1]:7 0.04932502
8 Transmitter/Unit3/stop_count[1]:8 0.05312992
9 Transmitter/Unit3/stop_count[1]:9 0.01572097
10 Transmitter/Unit3/stop_count[1]:10 0.01572097
11 Transmitter/Unit3/stop_count[1]:11 0.1271597
12 Transmitter/Unit3/stop_count[1]:12 0.125727

*RES
0 Transmitter\/Unit3\/stop_count_reg[1]:Q Transmitter/Unit3/stop_count[1]:12 1
1 Transmitter/Unit3/stop_count[1]:7 Transmitter\/Unit3\/U20:A2 1
2 Transmitter/Unit3/stop_count[1]:7 Transmitter/Unit3/stop_count[1]:6 0.5
3 Transmitter/Unit3/stop_count[1]:6 Transmitter/Unit3/stop_count[1]:5 2.9375
4 Transmitter/Unit3/stop_count[1]:4 Transmitter\/Unit3\/U12:A1 1
5 Transmitter/Unit3/stop_count[1]:4 Transmitter/Unit3/stop_count[1]:3 0.2825
6 Transmitter/Unit3/stop_count[1]:5 Transmitter/Unit3/stop_count[1]:4 0.5
7 Transmitter/Unit3/stop_count[1]:8 Transmitter/Unit3/stop_count[1]:7 1.580357
8 Transmitter/Unit3/stop_count[1]:9 Transmitter/Unit3/stop_count[1]:8 0.5
9 Transmitter/Unit3/stop_count[1]:11 Transmitter/Unit3/stop_count[1]:10 0.5
10 Transmitter/Unit3/stop_count[1]:10 Transmitter/Unit3/stop_count[1]:9 0.4946429
11 Transmitter/Unit3/stop_count[1]:12 Transmitter/Unit3/stop_count[1]:11 3.751786

*END

*D_NET Transmitter/Unit3/stop_count[0] 1.143728 //LENGTH 11.651 LUMPCC 0 DR

*CONN
*I Transmitter\/Unit3\/stop_count_reg[0]:Q O *L 0 *C 34.834 11.200
*I Transmitter\/Unit3\/U20:A3 I *L 0.55484 *C 35.108 12.916
*I Transmitter\/Unit3\/U12:A2 I *L 0.490862 *C 37.084 13.068
*I Transmitter\/Unit3\/U15:A2 I *L 0.973269 *C 35.716 7.900
*N Transmitter/Unit3/stop_count[0]:4 *C 35.716 7.913
*N Transmitter/Unit3/stop_count[0]:5 *C 35.716 11.838
*N Transmitter/Unit3/stop_count[0]:6 *C 35.730 11.852
*N Transmitter/Unit3/stop_count[0]:7 *C 37.071 11.852
*N Transmitter/Unit3/stop_count[0]:8 *C 37.084 11.866
*N Transmitter/Unit3/stop_count[0]:9 *C 37.084 12.885
*N Transmitter/Unit3/stop_count[0]:10 *C 37.084 13.056
*N Transmitter/Unit3/stop_count[0]:11 *C 37.071 13.068
*N Transmitter/Unit3/stop_count[0]:12 *C 35.122 13.068
*N Transmitter/Unit3/stop_count[0]:13 *C 35.108 13.056
*N Transmitter/Unit3/stop_count[0]:14 *C 35.108 12.929
*N Transmitter/Unit3/stop_count[0]:15 *C 34.804 12.916
*N Transmitter/Unit3/stop_count[0]:16 *C 34.804 11.106
*N Transmitter/Unit3/stop_count[0]:17 *C 34.804 11.092

*CAP
0 Transmitter\/Unit3\/stop_count_reg[0]:Q 0.009909958
1 Transmitter\/Unit3\/U20:A3 0.001
2 Transmitter\/Unit3\/U12:A2 0.001
3 Transmitter\/Unit3\/U15:A2 0.001
4 Transmitter/Unit3/stop_count[0]:4 0.2117292
5 Transmitter/Unit3/stop_count[0]:5 0.2131618
6 Transmitter/Unit3/stop_count[0]:6 0.05877059
7 Transmitter/Unit3/stop_count[0]:7 0.05877059
8 Transmitter/Unit3/stop_count[0]:8 0.05580655
9 Transmitter/Unit3/stop_count[0]:9 0.07211505
10 Transmitter/Unit3/stop_count[0]:10 0.007759164
11 Transmitter/Unit3/stop_count[0]:11 0.08577681
12 Transmitter/Unit3/stop_count[0]:12 0.08577681
13 Transmitter/Unit3/stop_count[0]:13 0.01605103
14 Transmitter/Unit3/stop_count[0]:14 0.0294525
15 Transmitter/Unit3/stop_count[0]:15 0.1223615
16 Transmitter/Unit3/stop_count[0]:16 0.1054519
17 Transmitter/Unit3/stop_count[0]:17 0.00783456

*RES
0 Transmitter\/Unit3\/stop_count_reg[0]:Q Transmitter/Unit3/stop_count[0]:17 0.09166668
1 Transmitter/Unit3/stop_count[0]:10 Transmitter\/Unit3\/U12:A2 1
2 Transmitter/Unit3/stop_count[0]:10 Transmitter/Unit3/stop_count[0]:9 0.2841667
3 Transmitter/Unit3/stop_count[0]:8 Transmitter/Unit3/stop_count[0]:7 0.5
4 Transmitter/Unit3/stop_count[0]:7 Transmitter/Unit3/stop_count[0]:6 2.394643
5 Transmitter/Unit3/stop_count[0]:5 Transmitter/Unit3/stop_count[0]:4 7.008929
6 Transmitter/Unit3/stop_count[0]:6 Transmitter/Unit3/stop_count[0]:5 0.5
7 Transmitter/Unit3/stop_count[0]:4 Transmitter\/Unit3\/U15:A2 1
8 Transmitter/Unit3/stop_count[0]:11 Transmitter/Unit3/stop_count[0]:10 0.5
9 Transmitter/Unit3/stop_count[0]:13 Transmitter/Unit3/stop_count[0]:12 0.5
10 Transmitter/Unit3/stop_count[0]:12 Transmitter/Unit3/stop_count[0]:11 3.480357
11 Transmitter/Unit3/stop_count[0]:14 Transmitter\/Unit3\/U20:A3 1
12 Transmitter/Unit3/stop_count[0]:14 Transmitter/Unit3/stop_count[0]:13 0.2116667
13 Transmitter/Unit3/stop_count[0]:17 Transmitter/Unit3/stop_count[0]:16 1
14 Transmitter/Unit3/stop_count[0]:16 Transmitter/Unit3/stop_count[0]:15 3.233036
15 Transmitter/Unit3/stop_count[0]:15 Transmitter/Unit3/stop_count[0]:14 0.5428572
16 Transmitter/Unit3/stop_count[0]:9 Transmitter/Unit3/stop_count[0]:8 1.820536

*END

*D_NET Reciever/baud_clk_w 4.627453 //LENGTH 52.568 LUMPCC 0 DR

*CONN
*I Reciever\/Unit1\/HFSBUF_505_2:Y O *L 0 *C 15.500 15.956
*I Reciever\/Unit2\/data_parll_reg[1]:CLK I *L 0.667702 *C 9.420 17.172
*I Reciever\/Unit2\/data_parll_reg[9]:CLK I *L 0.667702 *C 8.508 16.868
*I Reciever\/Unit2\/data_parll_reg[6]:CLK I *L 0.667702 *C 0.908 10.180
*I Reciever\/Unit2\/data_parll_reg[2]:CLK I *L 0.667702 *C 3.644 3.492
*I Reciever\/Unit2\/frame_counter_reg[0]:CLK I *L 0.667702 *C 5.164 0.452
*I Reciever\/Unit2\/data_parll_reg[8]:CLK I *L 0.667702 *C 3.796 0.452
*I Reciever\/Unit2\/data_parll_reg[5]:CLK I *L 0.667702 *C 1.060 13.828
*I Reciever\/Unit2\/data_parll_reg[7]:CLK I *L 0.667702 *C 1.212 16.868
*I Reciever\/Unit2\/data_parll_reg[4]:CLK I *L 0.667702 *C 11.852 16.868
*I Reciever\/Unit1\/U3:A1 I *L 1.174364 *C 12.156 21.428
*I Reciever\/Unit2\/data_parll_reg[3]:CLK I *L 0.667702 *C 15.348 13.828
*I Reciever\/Unit2\/active_flag_reg:CLK I *L 0.667702 *C 16.716 10.484
*N Reciever/baud_clk_w:13 *C 16.716 10.498
*N Reciever/baud_clk_w:14 *C 16.716 13.663
*N Reciever/baud_clk_w:15 *C 16.703 13.676
*N Reciever/baud_clk_w:16 *C 15.362 13.676
*N Reciever/baud_clk_w:17 *C 15.348 13.689
*N Reciever/baud_clk_w:18 *C 15.348 13.841
*N Reciever/baud_clk_w:19 *C 12.156 21.415
*N Reciever/baud_clk_w:20 *C 11.853 16.868
*N Reciever/baud_clk_w:21 *C 12.156 16.868
*N Reciever/baud_clk_w:22 *C 12.156 17.020
*N Reciever/baud_clk_w:23 *C 12.308 17.020
*N Reciever/baud_clk_w:24 *C 1.212 16.855
*N Reciever/baud_clk_w:25 *C 1.060 13.841
*N Reciever/baud_clk_w:26 *C 3.796 0.465
*N Reciever/baud_clk_w:27 *C 3.795 0.604
*N Reciever/baud_clk_w:28 *C 5.164 0.452
*N Reciever/baud_clk_w:29 *C 5.164 0.592
*N Reciever/baud_clk_w:30 *C 5.151 0.604
*N Reciever/baud_clk_w:31 *C 3.810 0.604
*N Reciever/baud_clk_w:32 *C 3.796 0.592
*N Reciever/baud_clk_w:33 *C 3.644 0.604
*N Reciever/baud_clk_w:34 *C 3.644 3.339
*N Reciever/baud_clk_w:35 *C 3.644 3.506
*N Reciever/baud_clk_w:36 *C 3.644 5.759
*N Reciever/baud_clk_w:37 *C 3.631 5.772
*N Reciever/baud_clk_w:38 *C 0.922 5.772
*N Reciever/baud_clk_w:39 *C 0.908 5.785
*N Reciever/baud_clk_w:40 *C 0.908 10.180
*N Reciever/baud_clk_w:41 *C 0.908 14.892
*N Reciever/baud_clk_w:42 *C 1.060 14.892
*N Reciever/baud_clk_w:43 *C 1.060 16.716
*N Reciever/baud_clk_w:44 *C 1.212 16.729
*N Reciever/baud_clk_w:45 *C 1.226 16.716
*N Reciever/baud_clk_w:46 *C 8.508 16.855
*N Reciever/baud_clk_w:47 *C 8.508 16.716
*N Reciever/baud_clk_w:48 *C 8.508 16.716
*N Reciever/baud_clk_w:49 *C 9.420 17.159
*N Reciever/baud_clk_w:50 *C 9.420 16.730
*N Reciever/baud_clk_w:51 *C 9.420 16.716
*N Reciever/baud_clk_w:52 *C 12.295 16.716
*N Reciever/baud_clk_w:53 *C 12.308 16.716
*N Reciever/baud_clk_w:54 *C 12.308 15.818
*N Reciever/baud_clk_w:55 *C 12.322 15.804
*N Reciever/baud_clk_w:56 *C 15.335 15.804
*N Reciever/baud_clk_w:57 *C 15.348 15.804
*N Reciever/baud_clk_w:58 *C 15.500 15.804
*N Reciever/baud_clk_w:59 *C 15.500 15.943

*CAP
0 Reciever\/Unit1\/HFSBUF_505_2:Y 0.001
1 Reciever\/Unit2\/data_parll_reg[1]:CLK 0.001
2 Reciever\/Unit2\/data_parll_reg[9]:CLK 0.001
3 Reciever\/Unit2\/data_parll_reg[6]:CLK 0.001
4 Reciever\/Unit2\/data_parll_reg[2]:CLK 0.001
5 Reciever\/Unit2\/frame_counter_reg[0]:CLK 0.001
6 Reciever\/Unit2\/data_parll_reg[8]:CLK 0.001
7 Reciever\/Unit2\/data_parll_reg[5]:CLK 0.001
8 Reciever\/Unit2\/data_parll_reg[7]:CLK 0.001
9 Reciever\/Unit2\/data_parll_reg[4]:CLK 0.001
10 Reciever\/Unit1\/U3:A1 0.001
11 Reciever\/Unit2\/data_parll_reg[3]:CLK 0.001
12 Reciever\/Unit2\/active_flag_reg:CLK 0.001
13 Reciever/baud_clk_w:13 0.1342748
14 Reciever/baud_clk_w:14 0.1357075
15 Reciever/baud_clk_w:15 0.06982083
16 Reciever/baud_clk_w:16 0.06982083
17 Reciever/baud_clk_w:17 0.01037871
18 Reciever/baud_clk_w:18 0.113437
19 Reciever/baud_clk_w:19 0.1917239
20 Reciever/baud_clk_w:20 0.01220033
21 Reciever/baud_clk_w:21 0.02550569
22 Reciever/baud_clk_w:22 0.2145004
23 Reciever/baud_clk_w:23 0.02965218
24 Reciever/baud_clk_w:24 0.008836575
25 Reciever/baud_clk_w:25 0.07782314
26 Reciever/baud_clk_w:26 0.00761374
27 Reciever/baud_clk_w:27 0.003273376
28 Reciever/baud_clk_w:28 0.007637403
29 Reciever/baud_clk_w:29 0.009070082
30 Reciever/baud_clk_w:30 0.0458993
31 Reciever/baud_clk_w:31 0.0458993
32 Reciever/baud_clk_w:32 0.01924091
33 Reciever/baud_clk_w:33 0.1302835
34 Reciever/baud_clk_w:34 0.1336906
35 Reciever/baud_clk_w:35 0.116846
36 Reciever/baud_clk_w:36 0.1079503
37 Reciever/baud_clk_w:37 0.1068599
38 Reciever/baud_clk_w:38 0.1068599
39 Reciever/baud_clk_w:39 0.2188944
40 Reciever/baud_clk_w:40 0.4972019
41 Reciever/baud_clk_w:41 0.287632
42 Reciever/baud_clk_w:42 0.1886989
43 Reciever/baud_clk_w:43 0.1073408
44 Reciever/baud_clk_w:44 0.01843091
45 Reciever/baud_clk_w:45 0.2488708
46 Reciever/baud_clk_w:46 0.008566446
47 Reciever/baud_clk_w:47 0.009999125
48 Reciever/baud_clk_w:48 0.2795404
49 Reciever/baud_clk_w:49 0.02213147
50 Reciever/baud_clk_w:50 0.02356414
51 Reciever/baud_clk_w:51 0.1318322
52 Reciever/baud_clk_w:52 0.1011626
53 Reciever/baud_clk_w:53 0.07592703
54 Reciever/baud_clk_w:54 0.05574598
55 Reciever/baud_clk_w:55 0.1260781
56 Reciever/baud_clk_w:56 0.1260781
57 Reciever/baud_clk_w:57 0.1110001
58 Reciever/baud_clk_w:58 0.02681857
59 Reciever/baud_clk_w:59 0.01413229

*RES
0 Reciever\/Unit1\/HFSBUF_505_2:Y Reciever/baud_clk_w:59 1
1 Reciever/baud_clk_w:59 Reciever/baud_clk_w:58 0.2473215
2 Reciever/baud_clk_w:18 Reciever\/Unit2\/data_parll_reg[3]:CLK 1
3 Reciever/baud_clk_w:18 Reciever/baud_clk_w:17 0.255
4 Reciever/baud_clk_w:17 Reciever/baud_clk_w:16 0.5
5 Reciever/baud_clk_w:16 Reciever/baud_clk_w:15 2.394643
6 Reciever/baud_clk_w:14 Reciever/baud_clk_w:13 5.651786
7 Reciever/baud_clk_w:15 Reciever/baud_clk_w:14 0.5
8 Reciever/baud_clk_w:13 Reciever\/Unit2\/active_flag_reg:CLK 1
9 Reciever/baud_clk_w:57 Reciever/baud_clk_w:56 0.5
10 Reciever/baud_clk_w:57 Reciever/baud_clk_w:18 3.504464
11 Reciever/baud_clk_w:56 Reciever/baud_clk_w:55 5.380357
12 Reciever/baud_clk_w:54 Reciever/baud_clk_w:53 1.604464
13 Reciever/baud_clk_w:55 Reciever/baud_clk_w:54 0.5
14 Reciever/baud_clk_w:19 Reciever\/Unit1\/U3:A1 1
15 Reciever/baud_clk_w:20 Reciever\/Unit2\/data_parll_reg[4]:CLK 1
16 Reciever/baud_clk_w:53 Reciever/baud_clk_w:52 0.5
17 Reciever/baud_clk_w:53 Reciever/baud_clk_w:23 0.5428572
18 Reciever/baud_clk_w:52 Reciever/baud_clk_w:51 5.133036
19 Reciever/baud_clk_w:50 Reciever/baud_clk_w:49 0.7660714
20 Reciever/baud_clk_w:51 Reciever/baud_clk_w:50 0.5
21 Reciever/baud_clk_w:51 Reciever/baud_clk_w:48 1.628572
22 Reciever/baud_clk_w:49 Reciever\/Unit2\/data_parll_reg[1]:CLK 1
23 Reciever/baud_clk_w:47 Reciever/baud_clk_w:46 0.2325
24 Reciever/baud_clk_w:48 Reciever/baud_clk_w:47 0.5
25 Reciever/baud_clk_w:48 Reciever/baud_clk_w:45 13.00447
26 Reciever/baud_clk_w:46 Reciever\/Unit2\/data_parll_reg[9]:CLK 1
27 Reciever/baud_clk_w:26 Reciever\/Unit2\/data_parll_reg[8]:CLK 1
28 Reciever/baud_clk_w:32 Reciever/baud_clk_w:31 0.5
29 Reciever/baud_clk_w:32 Reciever/baud_clk_w:27 0.01
30 Reciever/baud_clk_w:32 Reciever/baud_clk_w:26 0.2116667
31 Reciever/baud_clk_w:31 Reciever/baud_clk_w:30 2.394643
32 Reciever/baud_clk_w:29 Reciever/baud_clk_w:28 0.2325
33 Reciever/baud_clk_w:30 Reciever/baud_clk_w:29 0.5
34 Reciever/baud_clk_w:28 Reciever\/Unit2\/frame_counter_reg[0]:CLK 1
35 Reciever/baud_clk_w:35 Reciever\/Unit2\/data_parll_reg[2]:CLK 1
36 Reciever/baud_clk_w:35 Reciever/baud_clk_w:34 0.2775
37 Reciever/baud_clk_w:24 Reciever\/Unit2\/data_parll_reg[7]:CLK 1
38 Reciever/baud_clk_w:44 Reciever/baud_clk_w:43 0.2714286
39 Reciever/baud_clk_w:44 Reciever/baud_clk_w:24 0.2116667
40 Reciever/baud_clk_w:45 Reciever/baud_clk_w:44 0.5
41 Reciever/baud_clk_w:25 Reciever\/Unit2\/data_parll_reg[5]:CLK 1
42 Reciever/baud_clk_w:40 Reciever\/Unit2\/data_parll_reg[6]:CLK 1
43 Reciever/baud_clk_w:40 Reciever/baud_clk_w:39 7.847322
44 Reciever/baud_clk_w:36 Reciever/baud_clk_w:35 4.023214
45 Reciever/baud_clk_w:37 Reciever/baud_clk_w:36 0.5
46 Reciever/baud_clk_w:39 Reciever/baud_clk_w:38 0.5
47 Reciever/baud_clk_w:38 Reciever/baud_clk_w:37 4.837501
48 Reciever/baud_clk_w:41 Reciever/baud_clk_w:40 8.414287
49 Reciever/baud_clk_w:42 Reciever/baud_clk_w:41 0.2714286
50 Reciever/baud_clk_w:42 Reciever/baud_clk_w:25 1.875893
51 Reciever/baud_clk_w:43 Reciever/baud_clk_w:42 3.257143
52 Reciever/baud_clk_w:34 Reciever/baud_clk_w:33 4.883929
53 Reciever/baud_clk_w:33 Reciever/baud_clk_w:32 0.2714286
54 Reciever/baud_clk_w:21 Reciever/baud_clk_w:20 0.5410715
55 Reciever/baud_clk_w:22 Reciever/baud_clk_w:21 0.2714286
56 Reciever/baud_clk_w:22 Reciever/baud_clk_w:19 7.847322
57 Reciever/baud_clk_w:23 Reciever/baud_clk_w:22 0.2714286
58 Reciever/baud_clk_w:58 Reciever/baud_clk_w:57 0.2714286

*END

*D_NET Reciever/recieved_flag_w 0.7949251 //LENGTH 8.838 LUMPCC 0 DR

*CONN
*I Reciever\/Unit2\/recieved_flag_reg:Q O *L 0 *C 26.596 11.700
*I Reciever\/Unit2\/U34:A3 I *L 0.535173 *C 22.188 11.852
*I Reciever\/Unit3\/U4:A I *L 0.577904 *C 27.964 11.244
*I Reciever\/Unit3\/U3:A2 I *L 0.537549 *C 26.292 12.764
*N Reciever/recieved_flag_w:4 *C 26.292 12.751
*N Reciever/recieved_flag_w:5 *C 27.964 11.062
*N Reciever/recieved_flag_w:6 *C 27.964 11.232
*N Reciever/recieved_flag_w:7 *C 27.951 11.244
*N Reciever/recieved_flag_w:8 *C 22.188 11.838
*N Reciever/recieved_flag_w:9 *C 22.188 11.258
*N Reciever/recieved_flag_w:10 *C 22.201 11.244
*N Reciever/recieved_flag_w:11 *C 26.292 11.244
*N Reciever/recieved_flag_w:12 *C 26.292 11.258
*N Reciever/recieved_flag_w:13 *C 26.292 11.700
*N Reciever/recieved_flag_w:14 *C 26.595 11.700

*CAP
0 Reciever\/Unit2\/recieved_flag_reg:Q 0.001
1 Reciever\/Unit2\/U34:A3 0.001
2 Reciever\/Unit3\/U4:A 0.001
3 Reciever\/Unit3\/U3:A2 0.001
4 Reciever/recieved_flag_w:4 0.05439836
5 Reciever/recieved_flag_w:5 0.01893714
6 Reciever/recieved_flag_w:6 0.01276002
7 Reciever/recieved_flag_w:7 0.06858009
8 Reciever/recieved_flag_w:8 0.03246009
9 Reciever/recieved_flag_w:9 0.03389277
10 Reciever/recieved_flag_w:10 0.1824219
11 Reciever/recieved_flag_w:11 0.2533742
12 Reciever/recieved_flag_w:12 0.0210739
13 Reciever/recieved_flag_w:13 0.09921052
14 Reciever/recieved_flag_w:14 0.01381597

*RES
0 Reciever\/Unit2\/recieved_flag_reg:Q Reciever/recieved_flag_w:14 1
1 Reciever/recieved_flag_w:14 Reciever/recieved_flag_w:13 0.5410715
2 Reciever/recieved_flag_w:6 Reciever\/Unit3\/U4:A 1
3 Reciever/recieved_flag_w:6 Reciever/recieved_flag_w:5 0.2825
4 Reciever/recieved_flag_w:7 Reciever/recieved_flag_w:6 0.5
5 Reciever/recieved_flag_w:4 Reciever\/Unit3\/U3:A2 1
6 Reciever/recieved_flag_w:12 Reciever/recieved_flag_w:11 0.5
7 Reciever/recieved_flag_w:11 Reciever/recieved_flag_w:10 7.304464
8 Reciever/recieved_flag_w:11 Reciever/recieved_flag_w:7 2.961607
9 Reciever/recieved_flag_w:9 Reciever/recieved_flag_w:8 1.0375
10 Reciever/recieved_flag_w:10 Reciever/recieved_flag_w:9 0.5
11 Reciever/recieved_flag_w:8 Reciever\/Unit2\/U34:A3 1
12 Reciever/recieved_flag_w:13 Reciever/recieved_flag_w:12 0.7901786
13 Reciever/recieved_flag_w:13 Reciever/recieved_flag_w:4 1.875893

*END

*D_NET Reciever/def_par_bit_w 0.3123201 //LENGTH 3.350 LUMPCC 0 DR

*CONN
*I Reciever\/Unit3\/U15:Y O *L 0 *C 7.444 18.236
*I Reciever\/Unit4\/U11:A3 I *L 0.44336 *C 5.772 19.452
*N Reciever/def_par_bit_w:2 *C 7.444 18.054
*N Reciever/def_par_bit_w:3 *C 5.772 19.439
*N Reciever/def_par_bit_w:4 *C 5.772 18.250
*N Reciever/def_par_bit_w:5 *C 5.785 18.236
*N Reciever/def_par_bit_w:6 *C 7.431 18.236
*N Reciever/def_par_bit_w:7 *C 7.444 18.224

*CAP
0 Reciever\/Unit3\/U15:Y 0.001
1 Reciever\/Unit4\/U11:A3 0.001
2 Reciever/def_par_bit_w:2 0.01238529
3 Reciever/def_par_bit_w:3 0.07216234
4 Reciever/def_par_bit_w:4 0.07359502
5 Reciever/def_par_bit_w:5 0.07298463
6 Reciever/def_par_bit_w:6 0.07298463
7 Reciever/def_par_bit_w:7 0.006208175

*RES
0 Reciever\/Unit3\/U15:Y Reciever/def_par_bit_w:7 1
1 Reciever/def_par_bit_w:3 Reciever\/Unit4\/U11:A3 1
2 Reciever/def_par_bit_w:4 Reciever/def_par_bit_w:3 2.123214
3 Reciever/def_par_bit_w:5 Reciever/def_par_bit_w:4 0.5
4 Reciever/def_par_bit_w:7 Reciever/def_par_bit_w:6 0.5
5 Reciever/def_par_bit_w:7 Reciever/def_par_bit_w:2 0.2825
6 Reciever/def_par_bit_w:6 Reciever/def_par_bit_w:5 2.9375

*END

*D_NET Reciever/def_strt_bit_w 0.1849841 //LENGTH 2.340 LUMPCC 0 DR

*CONN
*I Reciever\/Unit3\/U6:Y O *L 0 *C 22.492 14.436
*I Reciever\/Unit4\/U9:A1 I *L 0.592288 *C 24.772 14.436
*N Reciever/def_strt_bit_w:2 *C 24.771 14.436
*N Reciever/def_strt_bit_w:3 *C 22.493 14.436

*CAP
0 Reciever\/Unit3\/U6:Y 0.001
1 Reciever\/Unit4\/U9:A1 0.001
2 Reciever/def_strt_bit_w:2 0.09146219
3 Reciever/def_strt_bit_w:3 0.09152191

*RES
0 Reciever\/Unit3\/U6:Y Reciever/def_strt_bit_w:3 1
1 Reciever/def_strt_bit_w:2 Reciever\/Unit4\/U9:A1 1
2 Reciever/def_strt_bit_w:3 Reciever/def_strt_bit_w:2 4.067858

*END

*D_NET Reciever/def_stp_bit_w 0.178434 //LENGTH 1.945 LUMPCC 0 DR

*CONN
*I Reciever\/Unit3\/U5:Y O *L 0 *C 25.038 16.108
*I Reciever\/Unit4\/U8:A1 I *L 0.548399 *C 26.292 16.032
*N Reciever/def_stp_bit_w:2 *C 25.076 15.926
*N Reciever/def_stp_bit_w:3 *C 26.292 15.982
*N Reciever/def_stp_bit_w:4 *C 26.292 16.058
*N Reciever/def_stp_bit_w:5 *C 26.279 16.108
*N Reciever/def_stp_bit_w:6 *C 25.090 16.108
*N Reciever/def_stp_bit_w:7 *C 25.076 16.096
*N Reciever/def_stp_bit_w:8 *C 25.076 16.108

*CAP
0 Reciever\/Unit3\/U5:Y 0.01017983
1 Reciever\/Unit4\/U8:A1 0.001
2 Reciever/def_stp_bit_w:2 0.02177917
3 Reciever/def_stp_bit_w:3 0.01036666
4 Reciever/def_stp_bit_w:4 0.014359
5 Reciever/def_stp_bit_w:5 0.04765669
6 Reciever/def_stp_bit_w:6 0.04765669
7 Reciever/def_stp_bit_w:7 0.01733155
8 Reciever/def_stp_bit_w:8 0.008104431

*RES
0 Reciever\/Unit3\/U5:Y Reciever/def_stp_bit_w:8 0.09166668
1 Reciever/def_stp_bit_w:3 Reciever\/Unit4\/U8:A1 0.5
2 Reciever/def_stp_bit_w:4 Reciever/def_stp_bit_w:3 0.1266667
3 Reciever/def_stp_bit_w:5 Reciever/def_stp_bit_w:4 0.5
4 Reciever/def_stp_bit_w:7 Reciever/def_stp_bit_w:6 0.5
5 Reciever/def_stp_bit_w:7 Reciever/def_stp_bit_w:2 0.2825
6 Reciever/def_stp_bit_w:6 Reciever/def_stp_bit_w:5 2.123214
7 Reciever/def_stp_bit_w:8 Reciever/def_stp_bit_w:7 1

*END

*D_NET Reciever/data_parll_w[10] 0.5155243 //LENGTH 7.211 LUMPCC 0 DR

*CONN
*I Reciever\/Unit2\/data_parll_reg[10]:Q O *L 0 *C 22.796 17.628
*I Reciever\/Unit2\/U35:A1 I *L 0.467813 *C 20.820 14.588
*I Reciever\/Unit3\/U5:A1 I *L 0.560711 *C 24.316 16.260
*N Reciever/data_parll_w[10]:3 *C 24.316 16.260
*N Reciever/data_parll_w[10]:4 *C 24.316 16.399
*N Reciever/data_parll_w[10]:5 *C 24.303 16.412
*N Reciever/data_parll_w[10]:6 *C 20.820 14.602
*N Reciever/data_parll_w[10]:7 *C 20.820 16.399
*N Reciever/data_parll_w[10]:8 *C 20.834 16.412
*N Reciever/data_parll_w[10]:9 *C 22.796 16.412
*N Reciever/data_parll_w[10]:10 *C 22.796 16.425
*N Reciever/data_parll_w[10]:11 *C 22.796 17.614

*CAP
0 Reciever\/Unit2\/data_parll_reg[10]:Q 0.001
1 Reciever\/Unit2\/U35:A1 0.001
2 Reciever\/Unit3\/U5:A1 0.001
3 Reciever/data_parll_w[10]:3 0.01128555
4 Reciever/data_parll_w[10]:4 0.01271823
5 Reciever/data_parll_w[10]:5 0.05260062
6 Reciever/data_parll_w[10]:6 0.07616834
7 Reciever/data_parll_w[10]:7 0.07760102
8 Reciever/data_parll_w[10]:8 0.06651174
9 Reciever/data_parll_w[10]:9 0.1214846
10 Reciever/data_parll_w[10]:10 0.04779346
11 Reciever/data_parll_w[10]:11 0.04636078

*RES
0 Reciever\/Unit2\/data_parll_reg[10]:Q Reciever/data_parll_w[10]:11 1
1 Reciever/data_parll_w[10]:4 Reciever/data_parll_w[10]:3 0.2325
2 Reciever/data_parll_w[10]:5 Reciever/data_parll_w[10]:4 0.5
3 Reciever/data_parll_w[10]:3 Reciever\/Unit3\/U5:A1 1
4 Reciever/data_parll_w[10]:10 Reciever/data_parll_w[10]:9 0.5
5 Reciever/data_parll_w[10]:9 Reciever/data_parll_w[10]:8 3.504465
6 Reciever/data_parll_w[10]:9 Reciever/data_parll_w[10]:5 2.690179
7 Reciever/data_parll_w[10]:11 Reciever/data_parll_w[10]:10 2.123214
8 Reciever/data_parll_w[10]:7 Reciever/data_parll_w[10]:6 3.208929
9 Reciever/data_parll_w[10]:8 Reciever/data_parll_w[10]:7 0.5
10 Reciever/data_parll_w[10]:6 Reciever\/Unit2\/U35:A1 1

*END

*D_NET Reciever/data_parll_w[9] 0.62849 //LENGTH 7.632 LUMPCC 0 DR

*CONN
*I Reciever\/Unit2\/data_parll_reg[9]:Q O *L 0 *C 5.438 16.260
*I Reciever\/Unit2\/U37:A1 I *L 0.467813 *C 7.292 14.588
*I Reciever\/Unit3\/U15:A1 I *L 0.560711 *C 8.204 17.780
*N Reciever/data_parll_w[9]:3 *C 8.204 17.767
*N Reciever/data_parll_w[9]:4 *C 8.204 15.804
*N Reciever/data_parll_w[9]:5 *C 7.292 14.602
*N Reciever/data_parll_w[9]:6 *C 7.292 15.804
*N Reciever/data_parll_w[9]:7 *C 7.292 15.803
*N Reciever/data_parll_w[9]:8 *C 7.292 15.500
*N Reciever/data_parll_w[9]:9 *C 5.482 15.500
*N Reciever/data_parll_w[9]:10 *C 5.468 15.514
*N Reciever/data_parll_w[9]:11 *C 5.468 16.247
*N Reciever/data_parll_w[9]:12 *C 5.468 16.260

*CAP
0 Reciever\/Unit2\/data_parll_reg[9]:Q 0.01262551
1 Reciever\/Unit2\/U37:A1 0.001
2 Reciever\/Unit3\/U15:A1 0.001
3 Reciever/data_parll_w[9]:3 0.08266479
4 Reciever/data_parll_w[9]:4 0.1249516
5 Reciever/data_parll_w[9]:5 0.0537878
6 Reciever/data_parll_w[9]:6 0.09370237
7 Reciever/data_parll_w[9]:7 0.009364827
8 Reciever/data_parll_w[9]:8 0.08171075
9 Reciever/data_parll_w[9]:9 0.06760149
10 Reciever/data_parll_w[9]:10 0.04461703
11 Reciever/data_parll_w[9]:11 0.04491385
12 Reciever/data_parll_w[9]:12 0.01055011

*RES
0 Reciever\/Unit2\/data_parll_reg[9]:Q Reciever/data_parll_w[9]:12 0.0981818
1 Reciever/data_parll_w[9]:3 Reciever\/Unit3\/U15:A1 1
2 Reciever/data_parll_w[9]:5 Reciever\/Unit2\/U37:A1 1
3 Reciever/data_parll_w[9]:6 Reciever/data_parll_w[9]:5 2.147321
4 Reciever/data_parll_w[9]:6 Reciever/data_parll_w[9]:4 1.628571
5 Reciever/data_parll_w[9]:7 Reciever/data_parll_w[9]:6 0.5
6 Reciever/data_parll_w[9]:10 Reciever/data_parll_w[9]:9 0.5
7 Reciever/data_parll_w[9]:9 Reciever/data_parll_w[9]:8 3.233036
8 Reciever/data_parll_w[9]:12 Reciever/data_parll_w[9]:11 1
9 Reciever/data_parll_w[9]:11 Reciever/data_parll_w[9]:10 1.308929
10 Reciever/data_parll_w[9]:4 Reciever/data_parll_w[9]:3 3.504464
11 Reciever/data_parll_w[9]:8 Reciever/data_parll_w[9]:7 0.5410715

*END

*D_NET Reciever/data_parll_w[8] 0.2892078 //LENGTH 3.110 LUMPCC 0 DR

*CONN
*I Reciever\/Unit2\/data_parll_reg[8]:Q O *L 0 *C 1.060 1.820
*I Reciever\/Unit2\/U39:A1 I *L 0.467813 *C 1.212 2.732
*I Reciever\/Unit3\/U7:A1 I *L 0.560711 *C 1.364 4.404
*N Reciever/data_parll_w[8]:3 *C 1.364 4.391
*N Reciever/data_parll_w[8]:4 *C 1.364 2.732
*N Reciever/data_parll_w[8]:5 *C 1.212 2.732
*N Reciever/data_parll_w[8]:6 *C 1.060 2.732
*N Reciever/data_parll_w[8]:7 *C 1.060 1.834

*CAP
0 Reciever\/Unit2\/data_parll_reg[8]:Q 0.001
1 Reciever\/Unit2\/U39:A1 0.001
2 Reciever\/Unit3\/U7:A1 0.001
3 Reciever/data_parll_w[8]:3 0.09021291
4 Reciever/data_parll_w[8]:4 0.1004872
5 Reciever/data_parll_w[8]:5 0.009133946
6 Reciever/data_parll_w[8]:6 0.04742593
7 Reciever/data_parll_w[8]:7 0.03894773

*RES
0 Reciever\/Unit2\/data_parll_reg[8]:Q Reciever/data_parll_w[8]:7 1
1 Reciever/data_parll_w[8]:3 Reciever\/Unit3\/U7:A1 1
2 Reciever/data_parll_w[8]:5 Reciever\/Unit2\/U39:A1 1
3 Reciever/data_parll_w[8]:5 Reciever/data_parll_w[8]:4 0.2714286
4 Reciever/data_parll_w[8]:7 Reciever/data_parll_w[8]:6 1.604465
5 Reciever/data_parll_w[8]:6 Reciever/data_parll_w[8]:5 0.2714286
6 Reciever/data_parll_w[8]:4 Reciever/data_parll_w[8]:3 2.961607

*END

*D_NET Reciever/data_parll_w[7] 0.4328126 //LENGTH 5.213 LUMPCC 0 DR

*CONN
*I Reciever\/Unit2\/data_parll_reg[7]:Q O *L 0 *C 4.282 16.260
*I Reciever\/Unit2\/U43:A1 I *L 0.467813 *C 5.772 14.588
*I Reciever\/Unit3\/U8:A1 I *L 0.560711 *C 4.860 17.780
*N Reciever/data_parll_w[7]:3 *C 4.860 17.767
*N Reciever/data_parll_w[7]:4 *C 5.772 14.602
*N Reciever/data_parll_w[7]:5 *C 5.772 16.095
*N Reciever/data_parll_w[7]:6 *C 5.759 16.108
*N Reciever/data_parll_w[7]:7 *C 4.873 16.108
*N Reciever/data_parll_w[7]:8 *C 4.860 16.122
*N Reciever/data_parll_w[7]:9 *C 4.860 16.260
*N Reciever/data_parll_w[7]:10 *C 4.253 16.260
*N Reciever/data_parll_w[7]:11 *C 4.252 16.260

*CAP
0 Reciever\/Unit2\/data_parll_reg[7]:Q 0.01185553
1 Reciever\/Unit2\/U43:A1 0.001
2 Reciever\/Unit3\/U8:A1 0.001
3 Reciever/data_parll_w[7]:3 0.06071776
4 Reciever/data_parll_w[7]:4 0.07040089
5 Reciever/data_parll_w[7]:5 0.07183357
6 Reciever/data_parll_w[7]:6 0.03731371
7 Reciever/data_parll_w[7]:7 0.03731371
8 Reciever/data_parll_w[7]:8 0.006474548
9 Reciever/data_parll_w[7]:9 0.1002837
10 Reciever/data_parll_w[7]:10 0.02483892
11 Reciever/data_parll_w[7]:11 0.009780135

*RES
0 Reciever\/Unit2\/data_parll_reg[7]:Q Reciever/data_parll_w[7]:11 0.07545455
1 Reciever/data_parll_w[7]:3 Reciever\/Unit3\/U8:A1 1
2 Reciever/data_parll_w[7]:8 Reciever/data_parll_w[7]:7 0.5
3 Reciever/data_parll_w[7]:7 Reciever/data_parll_w[7]:6 1.580357
4 Reciever/data_parll_w[7]:5 Reciever/data_parll_w[7]:4 2.666072
5 Reciever/data_parll_w[7]:6 Reciever/data_parll_w[7]:5 0.5
6 Reciever/data_parll_w[7]:4 Reciever\/Unit2\/U43:A1 1
7 Reciever/data_parll_w[7]:11 Reciever/data_parll_w[7]:10 1
8 Reciever/data_parll_w[7]:10 Reciever/data_parll_w[7]:9 1.083929
9 Reciever/data_parll_w[7]:9 Reciever/data_parll_w[7]:8 0.2473214
10 Reciever/data_parll_w[7]:9 Reciever/data_parll_w[7]:3 2.690179

*END

*D_NET Reciever/data_parll_w[6] 0.3184761 //LENGTH 3.440 LUMPCC 0 DR

*CONN
*I Reciever\/Unit2\/data_parll_reg[6]:Q O *L 0 *C 3.978 9.572
*I Reciever\/Unit3\/U9:A1 I *L 0.560711 *C 4.556 9.572
*I Reciever\/Unit2\/U46:A1 I *L 0.467813 *C 4.860 7.900
*N Reciever/data_parll_w[6]:3 *C 4.860 7.913
*N Reciever/data_parll_w[6]:4 *C 4.860 8.799
*N Reciever/data_parll_w[6]:5 *C 4.846 8.812
*N Reciever/data_parll_w[6]:6 *C 4.556 8.812
*N Reciever/data_parll_w[6]:7 *C 4.556 9.559
*N Reciever/data_parll_w[6]:8 *C 4.556 9.420
*N Reciever/data_parll_w[6]:9 *C 4.556 9.419
*N Reciever/data_parll_w[6]:10 *C 3.962 9.420
*N Reciever/data_parll_w[6]:11 *C 3.948 9.420
*N Reciever/data_parll_w[6]:12 *C 3.948 9.559
*N Reciever/data_parll_w[6]:13 *C 3.948 9.572

*CAP
0 Reciever\/Unit2\/data_parll_reg[6]:Q 0.01196567
1 Reciever\/Unit3\/U9:A1 0.001
2 Reciever\/Unit2\/U46:A1 0.001
3 Reciever/data_parll_w[6]:3 0.05080916
4 Reciever/data_parll_w[6]:4 0.05224184
5 Reciever/data_parll_w[6]:5 0.01459535
6 Reciever/data_parll_w[6]:6 0.0399338
7 Reciever/data_parll_w[6]:7 0.01359633
8 Reciever/data_parll_w[6]:8 0.015029
9 Reciever/data_parll_w[6]:9 0.05459055
10 Reciever/data_parll_w[6]:10 0.03162432
11 Reciever/data_parll_w[6]:11 0.01095151
12 Reciever/data_parll_w[6]:12 0.01124833
13 Reciever/data_parll_w[6]:13 0.009890273

*RES
0 Reciever\/Unit2\/data_parll_reg[6]:Q Reciever/data_parll_w[6]:13 0.07545454
1 Reciever/data_parll_w[6]:4 Reciever/data_parll_w[6]:3 1.580357
2 Reciever/data_parll_w[6]:5 Reciever/data_parll_w[6]:4 0.5
3 Reciever/data_parll_w[6]:3 Reciever\/Unit2\/U46:A1 1
4 Reciever/data_parll_w[6]:8 Reciever/data_parll_w[6]:7 0.2325
5 Reciever/data_parll_w[6]:9 Reciever/data_parll_w[6]:8 0.5
6 Reciever/data_parll_w[6]:9 Reciever/data_parll_w[6]:6 1.083929
7 Reciever/data_parll_w[6]:7 Reciever\/Unit3\/U9:A1 1
8 Reciever/data_parll_w[6]:11 Reciever/data_parll_w[6]:10 0.5
9 Reciever/data_parll_w[6]:10 Reciever/data_parll_w[6]:9 1.061607
10 Reciever/data_parll_w[6]:13 Reciever/data_parll_w[6]:12 1
11 Reciever/data_parll_w[6]:12 Reciever/data_parll_w[6]:11 0.2325
12 Reciever/data_parll_w[6]:6 Reciever/data_parll_w[6]:5 0.5187501

*END

*D_NET Reciever/data_parll_w[5] 0.414673 //LENGTH 4.329 LUMPCC 0 DR

*CONN
*I Reciever\/Unit2\/data_parll_reg[5]:Q O *L 0 *C 4.100 14.284
*I Reciever\/Unit3\/U10:A1 I *L 0.560711 *C 2.428 12.916
*I Reciever\/Unit2\/U49:A1 I *L 0.467813 *C 4.556 12.764
*N Reciever/data_parll_w[5]:3 *C 4.556 12.777
*N Reciever/data_parll_w[5]:4 *C 4.556 13.055
*N Reciever/data_parll_w[5]:5 *C 4.543 13.068
*N Reciever/data_parll_w[5]:6 *C 2.429 12.916
*N Reciever/data_parll_w[5]:7 *C 2.580 12.916
*N Reciever/data_parll_w[5]:8 *C 2.580 13.055
*N Reciever/data_parll_w[5]:9 *C 2.594 13.068
*N Reciever/data_parll_w[5]:10 *C 4.100 13.068
*N Reciever/data_parll_w[5]:11 *C 4.100 13.371
*N Reciever/data_parll_w[5]:12 *C 4.100 13.386
*N Reciever/data_parll_w[5]:13 *C 4.100 14.271

*CAP
0 Reciever\/Unit2\/data_parll_reg[5]:Q 0.001
1 Reciever\/Unit3\/U10:A1 0.001
2 Reciever\/Unit2\/U49:A1 0.001
3 Reciever/data_parll_w[5]:3 0.01966262
4 Reciever/data_parll_w[5]:4 0.0210953
5 Reciever/data_parll_w[5]:5 0.01783096
6 Reciever/data_parll_w[5]:6 0.004495521
7 Reciever/data_parll_w[5]:7 0.01811022
8 Reciever/data_parll_w[5]:8 0.00743758
9 Reciever/data_parll_w[5]:9 0.05972334
10 Reciever/data_parll_w[5]:10 0.09521263
11 Reciever/data_parll_w[5]:11 0.01054167
12 Reciever/data_parll_w[5]:12 0.07949795
13 Reciever/data_parll_w[5]:13 0.07806527

*RES
0 Reciever\/Unit2\/data_parll_reg[5]:Q Reciever/data_parll_w[5]:13 1
1 Reciever/data_parll_w[5]:4 Reciever/data_parll_w[5]:3 0.4946429
2 Reciever/data_parll_w[5]:5 Reciever/data_parll_w[5]:4 0.5
3 Reciever/data_parll_w[5]:3 Reciever\/Unit2\/U49:A1 1
4 Reciever/data_parll_w[5]:12 Reciever/data_parll_w[5]:11 0.5
5 Reciever/data_parll_w[5]:11 Reciever/data_parll_w[5]:10 0.5410715
6 Reciever/data_parll_w[5]:13 Reciever/data_parll_w[5]:12 1.580357
7 Reciever/data_parll_w[5]:8 Reciever/data_parll_w[5]:7 0.2473215
8 Reciever/data_parll_w[5]:9 Reciever/data_parll_w[5]:8 0.5
9 Reciever/data_parll_w[5]:6 Reciever\/Unit3\/U10:A1 1
10 Reciever/data_parll_w[5]:7 Reciever/data_parll_w[5]:6 0.2696429
11 Reciever/data_parll_w[5]:10 Reciever/data_parll_w[5]:9 2.690179
12 Reciever/data_parll_w[5]:10 Reciever/data_parll_w[5]:5 0.7901786

*END

*D_NET Reciever/data_parll_w[4] 0.5519512 //LENGTH 6.410 LUMPCC 0 DR

*CONN
*I Reciever\/Unit2\/data_parll_reg[4]:Q O *L 0 *C 14.588 15.652
*I Reciever\/Unit2\/U52:A1 I *L 0.467813 *C 12.156 14.588
*I Reciever\/Unit3\/U11:A1 I *L 0.560711 *C 14.588 17.780
*N Reciever/data_parll_w[4]:3 *C 14.588 17.767
*N Reciever/data_parll_w[4]:4 *C 12.156 14.602
*N Reciever/data_parll_w[4]:5 *C 12.156 16.095
*N Reciever/data_parll_w[4]:6 *C 12.170 16.108
*N Reciever/data_parll_w[4]:7 *C 14.575 16.108
*N Reciever/data_parll_w[4]:8 *C 14.588 16.108
*N Reciever/data_parll_w[4]:9 *C 14.588 15.666

*CAP
0 Reciever\/Unit2\/data_parll_reg[4]:Q 0.001
1 Reciever\/Unit2\/U52:A1 0.001
2 Reciever\/Unit3\/U11:A1 0.001
3 Reciever/data_parll_w[4]:3 0.06610411
4 Reciever/data_parll_w[4]:4 0.08422408
5 Reciever/data_parll_w[4]:5 0.08565675
6 Reciever/data_parll_w[4]:6 0.102368
7 Reciever/data_parll_w[4]:7 0.102368
8 Reciever/data_parll_w[4]:8 0.08975612
9 Reciever/data_parll_w[4]:9 0.01847416

*RES
0 Reciever\/Unit2\/data_parll_reg[4]:Q Reciever/data_parll_w[4]:9 1
1 Reciever/data_parll_w[4]:3 Reciever\/Unit3\/U11:A1 1
2 Reciever/data_parll_w[4]:9 Reciever/data_parll_w[4]:8 0.7901786
3 Reciever/data_parll_w[4]:8 Reciever/data_parll_w[4]:7 0.5
4 Reciever/data_parll_w[4]:8 Reciever/data_parll_w[4]:3 2.961607
5 Reciever/data_parll_w[4]:7 Reciever/data_parll_w[4]:6 4.294643
6 Reciever/data_parll_w[4]:5 Reciever/data_parll_w[4]:4 2.666072
7 Reciever/data_parll_w[4]:6 Reciever/data_parll_w[4]:5 0.5
8 Reciever/data_parll_w[4]:4 Reciever\/Unit2\/U52:A1 1

*END

*D_NET Reciever/data_parll_w[3] 0.4825324 //LENGTH 6.106 LUMPCC 0 DR

*CONN
*I Reciever\/Unit2\/data_parll_reg[3]:Q O *L 0 *C 18.084 15.196
*I Reciever\/Unit2\/U54:A1 I *L 0.467813 *C 13.980 14.588
*I Reciever\/Unit3\/U12:A1 I *L 0.560711 *C 18.084 16.260
*N Reciever/data_parll_w[3]:3 *C 18.084 16.247
*N Reciever/data_parll_w[3]:4 *C 13.980 14.602
*N Reciever/data_parll_w[3]:5 *C 13.980 15.183
*N Reciever/data_parll_w[3]:6 *C 13.994 15.196
*N Reciever/data_parll_w[3]:7 *C 18.070 15.196
*N Reciever/data_parll_w[3]:8 *C 18.084 15.210

*CAP
0 Reciever\/Unit2\/data_parll_reg[3]:Q 0.001
1 Reciever\/Unit2\/U54:A1 0.001
2 Reciever\/Unit3\/U12:A1 0.001
3 Reciever/data_parll_w[3]:3 0.04728261
4 Reciever/data_parll_w[3]:4 0.02852773
5 Reciever/data_parll_w[3]:5 0.02996041
6 Reciever/data_parll_w[3]:6 0.1635275
7 Reciever/data_parll_w[3]:7 0.1635275
8 Reciever/data_parll_w[3]:8 0.04670652

*RES
0 Reciever\/Unit2\/data_parll_reg[3]:Q Reciever/data_parll_w[3]:8 1
1 Reciever/data_parll_w[3]:3 Reciever\/Unit3\/U12:A1 1
2 Reciever/data_parll_w[3]:8 Reciever/data_parll_w[3]:7 0.5
3 Reciever/data_parll_w[3]:8 Reciever/data_parll_w[3]:3 1.851786
4 Reciever/data_parll_w[3]:7 Reciever/data_parll_w[3]:6 7.280358
5 Reciever/data_parll_w[3]:5 Reciever/data_parll_w[3]:4 1.0375
6 Reciever/data_parll_w[3]:6 Reciever/data_parll_w[3]:5 0.5
7 Reciever/data_parll_w[3]:4 Reciever\/Unit2\/U54:A1 1

*END

*D_NET Reciever/data_parll_w[2] 0.5417827 //LENGTH 6.714 LUMPCC 0 DR

*CONN
*I Reciever\/Unit2\/data_parll_reg[2]:Q O *L 0 *C 6.684 3.036
*I Reciever\/Unit2\/U57:A1 I *L 0.467813 *C 5.620 6.076
*I Reciever\/Unit3\/U13:A1 I *L 0.560711 *C 3.796 6.228
*N Reciever/data_parll_w[2]:3 *C 3.797 6.228
*N Reciever/data_parll_w[2]:4 *C 3.948 6.228
*N Reciever/data_parll_w[2]:5 *C 3.948 6.090
*N Reciever/data_parll_w[2]:6 *C 3.962 6.076
*N Reciever/data_parll_w[2]:7 *C 5.620 5.894
*N Reciever/data_parll_w[2]:8 *C 5.620 6.064
*N Reciever/data_parll_w[2]:9 *C 5.620 6.076
*N Reciever/data_parll_w[2]:10 *C 6.519 6.076
*N Reciever/data_parll_w[2]:11 *C 6.532 6.062
*N Reciever/data_parll_w[2]:12 *C 6.532 3.036
*N Reciever/data_parll_w[2]:13 *C 6.683 3.036

*CAP
0 Reciever\/Unit2\/data_parll_reg[2]:Q 0.001
1 Reciever\/Unit2\/U57:A1 0.001
2 Reciever\/Unit3\/U13:A1 0.001
3 Reciever/data_parll_w[2]:3 0.00459156
4 Reciever/data_parll_w[2]:4 0.0191689
5 Reciever/data_parll_w[2]:5 0.00840022
6 Reciever/data_parll_w[2]:6 0.06474741
7 Reciever/data_parll_w[2]:7 0.01351216
8 Reciever/data_parll_w[2]:8 0.007335049
9 Reciever/data_parll_w[2]:9 0.1021962
10 Reciever/data_parll_w[2]:10 0.03507657
11 Reciever/data_parll_w[2]:11 0.1347405
12 Reciever/data_parll_w[2]:12 0.1449659
13 Reciever/data_parll_w[2]:13 0.004048238

*RES
0 Reciever\/Unit2\/data_parll_reg[2]:Q Reciever/data_parll_w[2]:13 1
1 Reciever/data_parll_w[2]:11 Reciever/data_parll_w[2]:10 0.5
2 Reciever/data_parll_w[2]:10 Reciever/data_parll_w[2]:9 1.604465
3 Reciever/data_parll_w[2]:13 Reciever/data_parll_w[2]:12 0.2696429
4 Reciever/data_parll_w[2]:8 Reciever\/Unit2\/U57:A1 1
5 Reciever/data_parll_w[2]:8 Reciever/data_parll_w[2]:7 0.2825
6 Reciever/data_parll_w[2]:9 Reciever/data_parll_w[2]:8 0.5
7 Reciever/data_parll_w[2]:9 Reciever/data_parll_w[2]:6 2.961607
8 Reciever/data_parll_w[2]:5 Reciever/data_parll_w[2]:4 0.2473214
9 Reciever/data_parll_w[2]:6 Reciever/data_parll_w[2]:5 0.5
10 Reciever/data_parll_w[2]:3 Reciever\/Unit3\/U13:A1 1
11 Reciever/data_parll_w[2]:4 Reciever/data_parll_w[2]:3 0.2696429
12 Reciever/data_parll_w[2]:12 Reciever/data_parll_w[2]:11 5.404464

*END

*D_NET Reciever/data_parll_w[1] 0.3880867 //LENGTH 4.617 LUMPCC 0 DR

*CONN
*I Reciever\/Unit2\/data_parll_reg[1]:Q O *L 0 *C 12.460 17.628
*I Reciever\/Unit2\/U60:A1 I *L 0.467813 *C 10.636 16.108
*I Reciever\/Unit3\/U14:A1 I *L 0.560711 *C 13.220 17.780
*N Reciever/data_parll_w[1]:3 *C 13.219 17.780
*N Reciever/data_parll_w[1]:4 *C 12.460 17.780
*N Reciever/data_parll_w[1]:5 *C 10.636 16.122
*N Reciever/data_parll_w[1]:6 *C 10.636 17.614
*N Reciever/data_parll_w[1]:7 *C 10.649 17.628
*N Reciever/data_parll_w[1]:8 *C 12.447 17.628
*N Reciever/data_parll_w[1]:9 *C 12.460 17.642

*CAP
0 Reciever\/Unit2\/data_parll_reg[1]:Q 0.001
1 Reciever\/Unit2\/U60:A1 0.001
2 Reciever\/Unit3\/U14:A1 0.001
3 Reciever/data_parll_w[1]:3 0.03073528
4 Reciever/data_parll_w[1]:4 0.0471301
5 Reciever/data_parll_w[1]:5 0.07044756
6 Reciever/data_parll_w[1]:6 0.07188025
7 Reciever/data_parll_w[1]:7 0.07924039
8 Reciever/data_parll_w[1]:8 0.07924039
9 Reciever/data_parll_w[1]:9 0.006412801

*RES
0 Reciever\/Unit2\/data_parll_reg[1]:Q Reciever/data_parll_w[1]:9 1
1 Reciever/data_parll_w[1]:3 Reciever\/Unit3\/U14:A1 1
2 Reciever/data_parll_w[1]:9 Reciever/data_parll_w[1]:8 0.5
3 Reciever/data_parll_w[1]:9 Reciever/data_parll_w[1]:4 0.2473214
4 Reciever/data_parll_w[1]:8 Reciever/data_parll_w[1]:7 3.208929
5 Reciever/data_parll_w[1]:6 Reciever/data_parll_w[1]:5 2.666071
6 Reciever/data_parll_w[1]:7 Reciever/data_parll_w[1]:6 0.5
7 Reciever/data_parll_w[1]:5 Reciever\/Unit2\/U60:A1 1
8 Reciever/data_parll_w[1]:4 Reciever/data_parll_w[1]:3 1.355357

*END

*D_NET Reciever/data_parll_w[0] 0.5424504 //LENGTH 6.764 LUMPCC 0 DR

*CONN
*I Reciever\/Unit2\/data_parll_reg[0]:Q O *L 0 *C 23.860 12.308
*I Reciever\/Unit3\/U6:A1 I *L 0.592288 *C 22.036 14.436
*I Reciever\/Unit2\/U66:A1 I *L 0.467813 *C 20.060 12.764
*N Reciever/data_parll_w[0]:3 *C 20.060 12.582
*N Reciever/data_parll_w[0]:4 *C 20.060 12.752
*N Reciever/data_parll_w[0]:5 *C 20.073 12.764
*N Reciever/data_parll_w[0]:6 *C 22.036 14.423
*N Reciever/data_parll_w[0]:7 *C 22.036 13.676
*N Reciever/data_parll_w[0]:8 *C 21.884 13.676
*N Reciever/data_parll_w[0]:9 *C 21.884 12.777
*N Reciever/data_parll_w[0]:10 *C 21.884 12.764
*N Reciever/data_parll_w[0]:11 *C 23.847 12.764
*N Reciever/data_parll_w[0]:12 *C 23.860 12.751
*N Reciever/data_parll_w[0]:13 *C 23.860 12.322

*CAP
0 Reciever\/Unit2\/data_parll_reg[0]:Q 0.001
1 Reciever\/Unit3\/U6:A1 0.001
2 Reciever\/Unit2\/U66:A1 0.001
3 Reciever/data_parll_w[0]:3 0.0157524
4 Reciever/data_parll_w[0]:4 0.009575286
5 Reciever/data_parll_w[0]:5 0.07101998
6 Reciever/data_parll_w[0]:6 0.03950209
7 Reciever/data_parll_w[0]:7 0.05260303
8 Reciever/data_parll_w[0]:8 0.05790686
9 Reciever/data_parll_w[0]:9 0.0462386
10 Reciever/data_parll_w[0]:10 0.1395445
11 Reciever/data_parll_w[0]:11 0.06615227
12 Reciever/data_parll_w[0]:12 0.02126422
13 Reciever/data_parll_w[0]:13 0.01989126

*RES
0 Reciever\/Unit2\/data_parll_reg[0]:Q Reciever/data_parll_w[0]:13 1
1 Reciever/data_parll_w[0]:12 Reciever/data_parll_w[0]:11 0.5
2 Reciever/data_parll_w[0]:11 Reciever/data_parll_w[0]:10 3.504464
3 Reciever/data_parll_w[0]:13 Reciever/data_parll_w[0]:12 0.7660714
4 Reciever/data_parll_w[0]:9 Reciever/data_parll_w[0]:8 1.604464
5 Reciever/data_parll_w[0]:10 Reciever/data_parll_w[0]:9 0.5
6 Reciever/data_parll_w[0]:10 Reciever/data_parll_w[0]:5 3.233036
7 Reciever/data_parll_w[0]:6 Reciever\/Unit3\/U6:A1 1
8 Reciever/data_parll_w[0]:4 Reciever\/Unit2\/U66:A1 1
9 Reciever/data_parll_w[0]:4 Reciever/data_parll_w[0]:3 0.2825
10 Reciever/data_parll_w[0]:5 Reciever/data_parll_w[0]:4 0.5
11 Reciever/data_parll_w[0]:8 Reciever/data_parll_w[0]:7 0.2714286
12 Reciever/data_parll_w[0]:7 Reciever/data_parll_w[0]:6 1.333036

*END

*D_NET Reciever/Unit1/N18 0.4001822 //LENGTH 5.650 LUMPCC 0 DR

*CONN
*I Reciever\/Unit1\/add_62\/U1:Y O *L 0 *C 16.412 24.164
*I Reciever\/Unit1\/U25:A1 I *L 0.592288 *C 12.308 22.948
*N Reciever/Unit1/N18:2 *C 12.308 22.962
*N Reciever/Unit1/N18:3 *C 12.308 23.390
*N Reciever/Unit1/N18:4 *C 12.322 23.404
*N Reciever/Unit1/N18:5 *C 16.399 23.404
*N Reciever/Unit1/N18:6 *C 16.412 23.418
*N Reciever/Unit1/N18:7 *C 16.412 24.151

*CAP
0 Reciever\/Unit1\/add_62\/U1:Y 0.001
1 Reciever\/Unit1\/U25:A1 0.001
2 Reciever/Unit1/N18:2 0.0206855
3 Reciever/Unit1/N18:3 0.02211817
4 Reciever/Unit1/N18:4 0.1463246
5 Reciever/Unit1/N18:5 0.1463246
6 Reciever/Unit1/N18:6 0.03205111
7 Reciever/Unit1/N18:7 0.03067815

*RES
0 Reciever\/Unit1\/add_62\/U1:Y Reciever/Unit1/N18:7 1
1 Reciever/Unit1/N18:2 Reciever\/Unit1\/U25:A1 1
2 Reciever/Unit1/N18:3 Reciever/Unit1/N18:2 0.7660714
3 Reciever/Unit1/N18:4 Reciever/Unit1/N18:3 0.5
4 Reciever/Unit1/N18:6 Reciever/Unit1/N18:5 0.5
5 Reciever/Unit1/N18:5 Reciever/Unit1/N18:4 7.280358
6 Reciever/Unit1/N18:7 Reciever/Unit1/N18:6 1.308929

*END

*D_NET Reciever/Unit1/N19 0.360431 //LENGTH 4.130 LUMPCC 0 DR

*CONN
*I Reciever\/Unit1\/add_62\/U1_1_1:SO O *L 0 *C 9.244 24.523
*I Reciever\/Unit1\/U24:A1 I *L 0.592288 *C 9.724 27.812
*N Reciever/Unit1/N19:2 *C 9.724 27.799
*N Reciever/Unit1/N19:3 *C 9.724 27.066
*N Reciever/Unit1/N19:4 *C 9.710 27.052
*N Reciever/Unit1/N19:5 *C 9.282 27.052
*N Reciever/Unit1/N19:6 *C 9.268 27.039
*N Reciever/Unit1/N19:7 *C 9.268 24.482

*CAP
0 Reciever\/Unit1\/add_62\/U1_1_1:SO 0.001
1 Reciever\/Unit1\/U24:A1 0.001
2 Reciever/Unit1/N19:2 0.03459839
3 Reciever/Unit1/N19:3 0.03603107
4 Reciever/Unit1/N19:4 0.02235199
5 Reciever/Unit1/N19:5 0.02235199
6 Reciever/Unit1/N19:6 0.1222651
7 Reciever/Unit1/N19:7 0.1208325

*RES
0 Reciever\/Unit1\/add_62\/U1_1_1:SO Reciever/Unit1/N19:7 1
1 Reciever/Unit1/N19:2 Reciever\/Unit1\/U24:A1 1
2 Reciever/Unit1/N19:3 Reciever/Unit1/N19:2 1.308929
3 Reciever/Unit1/N19:4 Reciever/Unit1/N19:3 0.5
4 Reciever/Unit1/N19:6 Reciever/Unit1/N19:5 0.5
5 Reciever/Unit1/N19:5 Reciever/Unit1/N19:4 0.7660715
6 Reciever/Unit1/N19:7 Reciever/Unit1/N19:6 4.566072

*END

*D_NET Reciever/Unit1/N20 0.2002017 //LENGTH 2.573 LUMPCC 0 DR

*CONN
*I Reciever\/Unit1\/add_62\/U1_1_2:SO O *L 0 *C 2.124 22.188
*I Reciever\/Unit1\/U23:A1 I *L 0.592288 *C 3.492 21.124
*N Reciever/Unit1/N20:2 *C 3.491 21.124
*N Reciever/Unit1/N20:3 *C 2.124 21.124
*N Reciever/Unit1/N20:4 *C 2.124 22.175

*CAP
0 Reciever\/Unit1\/add_62\/U1_1_2:SO 0.001
1 Reciever\/Unit1\/U23:A1 0.001
2 Reciever/Unit1/N20:2 0.05307207
3 Reciever/Unit1/N20:3 0.102214
4 Reciever/Unit1/N20:4 0.0429157

*RES
0 Reciever\/Unit1\/add_62\/U1_1_2:SO Reciever/Unit1/N20:4 1
1 Reciever/Unit1/N20:2 Reciever\/Unit1\/U23:A1 1
2 Reciever/Unit1/N20:4 Reciever/Unit1/N20:3 1.875893
3 Reciever/Unit1/N20:3 Reciever/Unit1/N20:2 2.441072

*END

*D_NET Reciever/Unit1/N21 0.222494 //LENGTH 2.919 LUMPCC 0 DR

*CONN
*I Reciever\/Unit1\/add_62\/U1_1_3:SO O *L 0 *C 2.124 25.532
*I Reciever\/Unit1\/U22:A1 I *L 0.592288 *C 3.644 24.468
*N Reciever/Unit1/N21:2 *C 3.644 24.468
*N Reciever/Unit1/N21:3 *C 3.644 24.608
*N Reciever/Unit1/N21:4 *C 3.631 24.620
*N Reciever/Unit1/N21:5 *C 2.138 24.620
*N Reciever/Unit1/N21:6 *C 2.124 24.634
*N Reciever/Unit1/N21:7 *C 2.124 25.518

*CAP
0 Reciever\/Unit1\/add_62\/U1_1_3:SO 0.001
1 Reciever\/Unit1\/U22:A1 0.001
2 Reciever/Unit1/N21:2 0.01222549
3 Reciever/Unit1/N21:3 0.01365817
4 Reciever/Unit1/N21:4 0.05451132
5 Reciever/Unit1/N21:5 0.05451132
6 Reciever/Unit1/N21:6 0.04281842
7 Reciever/Unit1/N21:7 0.04276934

*RES
0 Reciever\/Unit1\/add_62\/U1_1_3:SO Reciever/Unit1/N21:7 1
1 Reciever/Unit1/N21:2 Reciever\/Unit1\/U22:A1 1
2 Reciever/Unit1/N21:3 Reciever/Unit1/N21:2 0.2325
3 Reciever/Unit1/N21:4 Reciever/Unit1/N21:3 0.5
4 Reciever/Unit1/N21:6 Reciever/Unit1/N21:5 0.5
5 Reciever/Unit1/N21:5 Reciever/Unit1/N21:4 2.666071
6 Reciever/Unit1/N21:7 Reciever/Unit1/N21:6 1.580357

*END

*D_NET Reciever/Unit1/N22 0.1632632 //LENGTH 2.367 LUMPCC 0 DR

*CONN
*I Reciever\/Unit1\/add_62\/U1_1_4:SO O *L 0 *C 1.972 27.812
*I Reciever\/Unit1\/U21:A1 I *L 0.592288 *C 3.644 27.812
*N Reciever/Unit1/N22:2 *C 3.631 27.812
*N Reciever/Unit1/N22:3 *C 3.492 27.812
*N Reciever/Unit1/N22:4 *C 3.492 27.674
*N Reciever/Unit1/N22:5 *C 3.479 27.660
*N Reciever/Unit1/N22:6 *C 1.986 27.660
*N Reciever/Unit1/N22:7 *C 1.972 27.660
*N Reciever/Unit1/N22:8 *C 1.972 27.800

*CAP
0 Reciever\/Unit1\/add_62\/U1_1_4:SO 0.001
1 Reciever\/Unit1\/U21:A1 0.001
2 Reciever/Unit1/N22:2 0.005900754
3 Reciever/Unit1/N22:3 0.02268583
4 Reciever/Unit1/N22:4 0.01060796
5 Reciever/Unit1/N22:5 0.0528134
6 Reciever/Unit1/N22:6 0.0528134
7 Reciever/Unit1/N22:7 0.008937281
8 Reciever/Unit1/N22:8 0.007504603

*RES
0 Reciever\/Unit1\/add_62\/U1_1_4:SO Reciever/Unit1/N22:8 1
1 Reciever/Unit1/N22:2 Reciever\/Unit1\/U21:A1 1
2 Reciever/Unit1/N22:4 Reciever/Unit1/N22:3 0.2473214
3 Reciever/Unit1/N22:5 Reciever/Unit1/N22:4 0.5
4 Reciever/Unit1/N22:7 Reciever/Unit1/N22:6 0.5
5 Reciever/Unit1/N22:6 Reciever/Unit1/N22:5 2.666071
6 Reciever/Unit1/N22:8 Reciever/Unit1/N22:7 0.2325
7 Reciever/Unit1/N22:3 Reciever/Unit1/N22:2 0.2473214

*END

*D_NET Reciever/Unit1/N23 0.4006981 //LENGTH 4.287 LUMPCC 0 DR

*CONN
*I Reciever\/Unit1\/add_62\/U1_1_5:SO O *L 0 *C 0.604 29.636
*I Reciever\/Unit1\/U20:A1 I *L 0.592288 *C 1.212 32.980
*N Reciever/Unit1/N23:2 *C 1.212 32.967
*N Reciever/Unit1/N23:3 *C 1.212 29.802
*N Reciever/Unit1/N23:4 *C 1.199 29.788
*N Reciever/Unit1/N23:5 *C 0.618 29.788
*N Reciever/Unit1/N23:6 *C 0.604 29.776
*N Reciever/Unit1/N23:7 *C 0.604 29.636

*CAP
0 Reciever\/Unit1\/add_62\/U1_1_5:SO 0.001
1 Reciever\/Unit1\/U20:A1 0.001
2 Reciever/Unit1/N23:2 0.1617719
3 Reciever/Unit1/N23:3 0.1632046
4 Reciever/Unit1/N23:4 0.02291043
5 Reciever/Unit1/N23:5 0.02291043
6 Reciever/Unit1/N23:6 0.01466675
7 Reciever/Unit1/N23:7 0.01323407

*RES
0 Reciever\/Unit1\/add_62\/U1_1_5:SO Reciever/Unit1/N23:7 1
1 Reciever/Unit1/N23:2 Reciever\/Unit1\/U20:A1 1
2 Reciever/Unit1/N23:3 Reciever/Unit1/N23:2 5.651786
3 Reciever/Unit1/N23:4 Reciever/Unit1/N23:3 0.5
4 Reciever/Unit1/N23:6 Reciever/Unit1/N23:5 0.5
5 Reciever/Unit1/N23:5 Reciever/Unit1/N23:4 1.0375
6 Reciever/Unit1/N23:7 Reciever/Unit1/N23:6 0.2325

*END

*D_NET Reciever/Unit1/N24 0.486642 //LENGTH 5.954 LUMPCC 0 DR

*CONN
*I Reciever\/Unit1\/add_62\/U1_1_6:SO O *L 0 *C 6.076 34.500
*I Reciever\/Unit1\/U19:A1 I *L 0.592288 *C 1.364 34.500
*N Reciever/Unit1/N24:2 *C 1.364 34.486
*N Reciever/Unit1/N24:3 *C 1.364 34.058
*N Reciever/Unit1/N24:4 *C 1.378 34.044
*N Reciever/Unit1/N24:5 *C 6.062 34.044
*N Reciever/Unit1/N24:6 *C 6.076 34.058
*N Reciever/Unit1/N24:7 *C 6.076 34.486

*CAP
0 Reciever\/Unit1\/add_62\/U1_1_6:SO 0.001
1 Reciever\/Unit1\/U19:A1 0.001
2 Reciever/Unit1/N24:2 0.03212757
3 Reciever/Unit1/N24:3 0.03356025
4 Reciever/Unit1/N24:4 0.1896046
5 Reciever/Unit1/N24:5 0.1896046
6 Reciever/Unit1/N24:6 0.02058885
7 Reciever/Unit1/N24:7 0.01915617

*RES
0 Reciever\/Unit1\/add_62\/U1_1_6:SO Reciever/Unit1/N24:7 1
1 Reciever/Unit1/N24:2 Reciever\/Unit1\/U19:A1 1
2 Reciever/Unit1/N24:3 Reciever/Unit1/N24:2 0.7660715
3 Reciever/Unit1/N24:4 Reciever/Unit1/N24:3 0.5
4 Reciever/Unit1/N24:6 Reciever/Unit1/N24:5 0.5
5 Reciever/Unit1/N24:5 Reciever/Unit1/N24:4 8.366073
6 Reciever/Unit1/N24:7 Reciever/Unit1/N24:6 0.7660714

*END

*D_NET Reciever/Unit1/N25 0.1294182 //LENGTH 1.708 LUMPCC 0 DR

*CONN
*I Reciever\/Unit1\/add_62\/U1_1_7:SO O *L 0 *C 11.700 36.324
*I Reciever\/Unit1\/U18:A1 I *L 0.592288 *C 12.764 36.324
*N Reciever/Unit1/N25:2 *C 12.764 36.324
*N Reciever/Unit1/N25:3 *C 12.764 36.464
*N Reciever/Unit1/N25:4 *C 12.751 36.476
*N Reciever/Unit1/N25:5 *C 11.713 36.476
*N Reciever/Unit1/N25:6 *C 11.700 36.464
*N Reciever/Unit1/N25:7 *C 11.700 36.324

*CAP
0 Reciever\/Unit1\/add_62\/U1_1_7:SO 0.001
1 Reciever\/Unit1\/U18:A1 0.001
2 Reciever/Unit1/N25:2 0.01008801
3 Reciever/Unit1/N25:3 0.01152068
4 Reciever/Unit1/N25:4 0.0448266
5 Reciever/Unit1/N25:5 0.0448266
6 Reciever/Unit1/N25:6 0.008794506
7 Reciever/Unit1/N25:7 0.007361828

*RES
0 Reciever\/Unit1\/add_62\/U1_1_7:SO Reciever/Unit1/N25:7 1
1 Reciever/Unit1/N25:2 Reciever\/Unit1\/U18:A1 1
2 Reciever/Unit1/N25:3 Reciever/Unit1/N25:2 0.2325
3 Reciever/Unit1/N25:4 Reciever/Unit1/N25:3 0.5
4 Reciever/Unit1/N25:6 Reciever/Unit1/N25:5 0.5
5 Reciever/Unit1/N25:5 Reciever/Unit1/N25:4 1.851786
6 Reciever/Unit1/N25:7 Reciever/Unit1/N25:6 0.2325

*END

*D_NET Reciever/Unit1/N26 0.6386229 //LENGTH 7.636 LUMPCC 0 DR

*CONN
*I Reciever\/Unit1\/add_62\/U1_1_8:SO O *L 0 *C 8.052 36.324
*I Reciever\/Unit1\/U17:A1 I *L 0.592288 *C 1.060 36.324
*N Reciever/Unit1/N26:2 *C 1.060 36.324
*N Reciever/Unit1/N26:3 *C 1.060 36.464
*N Reciever/Unit1/N26:4 *C 1.074 36.476
*N Reciever/Unit1/N26:5 *C 8.039 36.476
*N Reciever/Unit1/N26:6 *C 8.052 36.464
*N Reciever/Unit1/N26:7 *C 8.052 36.324

*CAP
0 Reciever\/Unit1\/add_62\/U1_1_8:SO 0.001
1 Reciever\/Unit1\/U17:A1 0.001
2 Reciever/Unit1/N26:2 0.01007471
3 Reciever/Unit1/N26:3 0.01150739
4 Reciever/Unit1/N26:4 0.294441
5 Reciever/Unit1/N26:5 0.294441
6 Reciever/Unit1/N26:6 0.01379576
7 Reciever/Unit1/N26:7 0.01236308

*RES
0 Reciever\/Unit1\/add_62\/U1_1_8:SO Reciever/Unit1/N26:7 1
1 Reciever/Unit1/N26:2 Reciever\/Unit1\/U17:A1 1
2 Reciever/Unit1/N26:3 Reciever/Unit1/N26:2 0.2325
3 Reciever/Unit1/N26:4 Reciever/Unit1/N26:3 0.5
4 Reciever/Unit1/N26:6 Reciever/Unit1/N26:5 0.5
5 Reciever/Unit1/N26:5 Reciever/Unit1/N26:4 12.4375
6 Reciever/Unit1/N26:7 Reciever/Unit1/N26:6 0.2325

*END

*D_NET Reciever/Unit1/N27 0.1511128 //LENGTH 1.813 LUMPCC 0 DR

*CONN
*I Reciever\/Unit1\/add_62\/U2:Y O *L 0 *C 12.503 34.665
*I Reciever\/Unit1\/U16:A1 I *L 0.592288 *C 13.372 34.500
*N Reciever/Unit1/N27:2 *C 13.372 34.488
*N Reciever/Unit1/N27:3 *C 13.372 34.348
*N Reciever/Unit1/N27:4 *C 13.359 34.348
*N Reciever/Unit1/N27:5 *C 12.474 34.348
*N Reciever/Unit1/N27:6 *C 12.460 34.361
*N Reciever/Unit1/N27:7 *C 12.460 34.639
*N Reciever/Unit1/N27:8 *C 12.460 34.652

*CAP
0 Reciever\/Unit1\/add_62\/U2:Y 0.01123499
1 Reciever\/Unit1\/U16:A1 0.001
2 Reciever/Unit1/N27:2 0.01011872
3 Reciever/Unit1/N27:3 0.0115514
4 Reciever/Unit1/N27:4 0.03898896
5 Reciever/Unit1/N27:5 0.03898896
6 Reciever/Unit1/N27:6 0.0148867
7 Reciever/Unit1/N27:7 0.01518352
8 Reciever/Unit1/N27:8 0.009159596

*RES
0 Reciever\/Unit1\/add_62\/U2:Y Reciever/Unit1/N27:8 0.09166667
1 Reciever/Unit1/N27:2 Reciever\/Unit1\/U16:A1 1
2 Reciever/Unit1/N27:3 Reciever/Unit1/N27:2 0.2325
3 Reciever/Unit1/N27:4 Reciever/Unit1/N27:3 0.5
4 Reciever/Unit1/N27:6 Reciever/Unit1/N27:5 0.5
5 Reciever/Unit1/N27:5 Reciever/Unit1/N27:4 1.580357
6 Reciever/Unit1/N27:8 Reciever/Unit1/N27:7 1
7 Reciever/Unit1/N27:7 Reciever/Unit1/N27:6 0.4946429

*END

*D_NET Reciever/Unit1/N28 0.09075709 //LENGTH 1.205 LUMPCC 0 DR

*CONN
*I Reciever\/Unit1\/U3:Y O *L 0 *C 13.524 21.124
*I Reciever\/Unit1\/baud_clk_reg:D I *L 0.540354 *C 14.284 21.428
*N Reciever/Unit1/N28:2 *C 14.283 21.428
*N Reciever/Unit1/N28:3 *C 13.524 21.428
*N Reciever/Unit1/N28:4 *C 13.524 21.137

*CAP
0 Reciever\/Unit1\/U3:Y 0.001
1 Reciever\/Unit1\/baud_clk_reg:D 0.001
2 Reciever/Unit1/N28:2 0.02882979
3 Reciever/Unit1/N28:3 0.04818344
4 Reciever/Unit1/N28:4 0.01174386

*RES
0 Reciever\/Unit1\/U3:Y Reciever/Unit1/N28:4 1
1 Reciever/Unit1/N28:2 Reciever\/Unit1\/baud_clk_reg:D 1
2 Reciever/Unit1/N28:4 Reciever/Unit1/N28:3 0.5187501
3 Reciever/Unit1/N28:3 Reciever/Unit1/N28:2 1.355357

*END

*D_NET Reciever/Unit1/N29 0.05905551 //LENGTH 0.426 LUMPCC 0 DR

*CONN
*I Reciever\/Unit1\/U25:Y O *L 0 *C 12.931 22.654
*I Reciever\/Unit1\/clock_ticks_reg[0]:D I *L 0.540354 *C 13.357 22.644

*CAP
0 Reciever\/Unit1\/U25:Y 0.02952776
1 Reciever\/Unit1\/clock_ticks_reg[0]:D 0.02952776

*RES
0 Reciever\/Unit1\/U25:Y Reciever\/Unit1\/clock_ticks_reg[0]:D 0.8520001

*END

*D_NET Reciever/Unit1/N30 0.5463799 //LENGTH 6.542 LUMPCC 0 DR

*CONN
*I Reciever\/Unit1\/U24:Y O *L 0 *C 9.268 27.356
*I Reciever\/Unit1\/clock_ticks_reg[1]:D I *L 0.540354 *C 7.900 22.644
*N Reciever/Unit1/N30:2 *C 9.268 27.538
*N Reciever/Unit1/N30:3 *C 7.900 22.658
*N Reciever/Unit1/N30:4 *C 7.900 27.343
*N Reciever/Unit1/N30:5 *C 7.913 27.356
*N Reciever/Unit1/N30:6 *C 9.255 27.356
*N Reciever/Unit1/N30:7 *C 9.268 27.369

*CAP
0 Reciever\/Unit1\/U24:Y 0.001
1 Reciever\/Unit1\/clock_ticks_reg[1]:D 0.001
2 Reciever/Unit1/N30:2 0.01427106
3 Reciever/Unit1/N30:3 0.2067672
4 Reciever/Unit1/N30:4 0.2081999
5 Reciever/Unit1/N30:5 0.05349407
6 Reciever/Unit1/N30:6 0.05349407
7 Reciever/Unit1/N30:7 0.008153664

*RES
0 Reciever\/Unit1\/U24:Y Reciever/Unit1/N30:7 1
1 Reciever/Unit1/N30:3 Reciever\/Unit1\/clock_ticks_reg[1]:D 1
2 Reciever/Unit1/N30:4 Reciever/Unit1/N30:3 8.366072
3 Reciever/Unit1/N30:5 Reciever/Unit1/N30:4 0.5
4 Reciever/Unit1/N30:7 Reciever/Unit1/N30:6 0.5
5 Reciever/Unit1/N30:7 Reciever/Unit1/N30:2 0.2825
6 Reciever/Unit1/N30:6 Reciever/Unit1/N30:5 2.394643

*END

*D_NET Reciever/Unit1/N31 0.08949862 //LENGTH 1.053 LUMPCC 0 DR

*CONN
*I Reciever\/Unit1\/U23:Y O *L 0 *C 3.036 21.884
*I Reciever\/Unit1\/clock_ticks_reg[2]:D I *L 0.540354 *C 3.188 22.644
*N Reciever/Unit1/N31:2 *C 3.187 22.644
*N Reciever/Unit1/N31:3 *C 3.036 22.644
*N Reciever/Unit1/N31:4 *C 3.036 21.898

*CAP
0 Reciever\/Unit1\/U23:Y 0.001
1 Reciever\/Unit1\/clock_ticks_reg[2]:D 0.001
2 Reciever/Unit1/N31:2 0.004489327
3 Reciever/Unit1/N31:3 0.04718388
4 Reciever/Unit1/N31:4 0.03582542

*RES
0 Reciever\/Unit1\/U23:Y Reciever/Unit1/N31:4 1
1 Reciever/Unit1/N31:2 Reciever\/Unit1\/clock_ticks_reg[2]:D 1
2 Reciever/Unit1/N31:4 Reciever/Unit1/N31:3 1.333036
3 Reciever/Unit1/N31:3 Reciever/Unit1/N31:2 0.2696429

*END

*D_NET Reciever/Unit1/N32 0.1337923 //LENGTH 1.590 LUMPCC 0 DR

*CONN
*I Reciever\/Unit1\/U22:Y O *L 0 *C 3.036 24.772
*I Reciever\/Unit1\/clock_ticks_reg[3]:D I *L 0.540354 *C 2.884 25.988
*N Reciever/Unit1/N32:2 *C 2.884 25.975
*N Reciever/Unit1/N32:3 *C 2.884 24.924
*N Reciever/Unit1/N32:4 *C 3.036 24.924
*N Reciever/Unit1/N32:5 *C 3.036 24.786

*CAP
0 Reciever\/Unit1\/U22:Y 0.001
1 Reciever\/Unit1\/clock_ticks_reg[3]:D 0.001
2 Reciever/Unit1/N32:2 0.04566295
3 Reciever/Unit1/N32:3 0.05721229
4 Reciever/Unit1/N32:4 0.02023319
5 Reciever/Unit1/N32:5 0.008683855

*RES
0 Reciever\/Unit1\/U22:Y Reciever/Unit1/N32:5 1
1 Reciever/Unit1/N32:2 Reciever\/Unit1\/clock_ticks_reg[3]:D 1
2 Reciever/Unit1/N32:5 Reciever/Unit1/N32:4 0.2473214
3 Reciever/Unit1/N32:3 Reciever/Unit1/N32:2 1.875893
4 Reciever/Unit1/N32:4 Reciever/Unit1/N32:3 0.2714286

*END

*D_NET Reciever/Unit1/N33 0.1076802 //LENGTH 1.326 LUMPCC 0 DR

*CONN
*I Reciever\/Unit1\/U21:Y O *L 0 *C 3.036 28.116
*I Reciever\/Unit1\/clock_ticks_reg[4]:D I *L 0.540354 *C 3.036 29.332
*N Reciever/Unit1/N33:2 *C 3.036 29.319
*N Reciever/Unit1/N33:3 *C 3.036 28.130

*CAP
0 Reciever\/Unit1\/U21:Y 0.001
1 Reciever\/Unit1\/clock_ticks_reg[4]:D 0.001
2 Reciever/Unit1/N33:2 0.05284012
3 Reciever/Unit1/N33:3 0.05284012

*RES
0 Reciever\/Unit1\/U21:Y Reciever/Unit1/N33:3 1
1 Reciever/Unit1/N33:2 Reciever\/Unit1\/clock_ticks_reg[4]:D 1
2 Reciever/Unit1/N33:3 Reciever/Unit1/N33:2 2.123214

*END

*D_NET Reciever/Unit1/N34 0.2266797 //LENGTH 2.919 LUMPCC 0 DR

*CONN
*I Reciever\/Unit1\/U20:Y O *L 0 *C 0.756 32.220
*I Reciever\/Unit1\/clock_ticks_reg[5]:D I *L 0.540354 *C 2.580 31.460
*N Reciever/Unit1/N34:2 *C 2.580 31.460
*N Reciever/Unit1/N34:3 *C 2.580 31.600
*N Reciever/Unit1/N34:4 *C 2.567 31.612
*N Reciever/Unit1/N34:5 *C 0.770 31.612
*N Reciever/Unit1/N34:6 *C 0.756 31.626
*N Reciever/Unit1/N34:7 *C 0.756 32.206

*CAP
0 Reciever\/Unit1\/U20:Y 0.001
1 Reciever\/Unit1\/clock_ticks_reg[5]:D 0.001
2 Reciever/Unit1/N34:2 0.006498185
3 Reciever/Unit1/N34:3 0.007930863
4 Reciever/Unit1/N34:4 0.06169326
5 Reciever/Unit1/N34:5 0.06169326
6 Reciever/Unit1/N34:6 0.04377808
7 Reciever/Unit1/N34:7 0.04308606

*RES
0 Reciever\/Unit1\/U20:Y Reciever/Unit1/N34:7 1
1 Reciever/Unit1/N34:2 Reciever\/Unit1\/clock_ticks_reg[5]:D 1
2 Reciever/Unit1/N34:3 Reciever/Unit1/N34:2 0.2325
3 Reciever/Unit1/N34:4 Reciever/Unit1/N34:3 0.5
4 Reciever/Unit1/N34:6 Reciever/Unit1/N34:5 0.5
5 Reciever/Unit1/N34:5 Reciever/Unit1/N34:4 3.208929
6 Reciever/Unit1/N34:7 Reciever/Unit1/N34:6 1.0375

*END

*D_NET Reciever/Unit1/N35 0.2336866 //LENGTH 3.029 LUMPCC 0 DR

*CONN
*I Reciever\/Unit1\/U19:Y O *L 0 *C 1.972 34.804
*I Reciever\/Unit1\/clock_ticks_reg[6]:D I *L 0.540354 *C 2.580 32.798
*N Reciever/Unit1/N35:2 *C 2.580 32.828
*N Reciever/Unit1/N35:3 *C 2.580 32.842
*N Reciever/Unit1/N35:4 *C 2.580 34.639
*N Reciever/Unit1/N35:5 *C 2.567 34.652
*N Reciever/Unit1/N35:6 *C 1.986 34.652
*N Reciever/Unit1/N35:7 *C 1.972 34.652
*N Reciever/Unit1/N35:8 *C 1.972 34.791

*CAP
0 Reciever\/Unit1\/U19:Y 0.001
1 Reciever\/Unit1\/clock_ticks_reg[6]:D 0.0065678
2 Reciever/Unit1/N35:2 0.004492402
3 Reciever/Unit1/N35:3 0.07604683
4 Reciever/Unit1/N35:4 0.07575002
5 Reciever/Unit1/N35:5 0.02667239
6 Reciever/Unit1/N35:6 0.02667239
7 Reciever/Unit1/N35:7 0.008958722
8 Reciever/Unit1/N35:8 0.007526045

*RES
0 Reciever\/Unit1\/U19:Y Reciever/Unit1/N35:8 1
1 Reciever/Unit1/N35:2 Reciever\/Unit1\/clock_ticks_reg[6]:D 0.02727273
2 Reciever/Unit1/N35:3 Reciever/Unit1/N35:2 1
3 Reciever/Unit1/N35:4 Reciever/Unit1/N35:3 3.208929
4 Reciever/Unit1/N35:5 Reciever/Unit1/N35:4 0.5
5 Reciever/Unit1/N35:7 Reciever/Unit1/N35:6 0.5
6 Reciever/Unit1/N35:6 Reciever/Unit1/N35:5 1.0375
7 Reciever/Unit1/N35:8 Reciever/Unit1/N35:7 0.2325

*END

*D_NET Reciever/Unit1/N36 0.1265016 //LENGTH 1.708 LUMPCC 0 DR

*CONN
*I Reciever\/Unit1\/U18:Y O *L 0 *C 13.372 36.020
*I Reciever\/Unit1\/clock_ticks_reg[7]:D I *L 0.540354 *C 14.436 36.020
*N Reciever/Unit1/N36:2 *C 14.436 36.008
*N Reciever/Unit1/N36:3 *C 14.436 35.868
*N Reciever/Unit1/N36:4 *C 14.423 35.868
*N Reciever/Unit1/N36:5 *C 13.386 35.868
*N Reciever/Unit1/N36:6 *C 13.372 35.868
*N Reciever/Unit1/N36:7 *C 13.372 36.008

*CAP
0 Reciever\/Unit1\/U18:Y 0.001
1 Reciever\/Unit1\/clock_ticks_reg[7]:D 0.001
2 Reciever/Unit1/N36:2 0.007714208
3 Reciever/Unit1/N36:3 0.009146887
4 Reciever/Unit1/N36:4 0.0461971
5 Reciever/Unit1/N36:5 0.0461971
6 Reciever/Unit1/N36:6 0.008339492
7 Reciever/Unit1/N36:7 0.006906813

*RES
0 Reciever\/Unit1\/U18:Y Reciever/Unit1/N36:7 1
1 Reciever/Unit1/N36:2 Reciever\/Unit1\/clock_ticks_reg[7]:D 1
2 Reciever/Unit1/N36:3 Reciever/Unit1/N36:2 0.2325
3 Reciever/Unit1/N36:4 Reciever/Unit1/N36:3 0.5
4 Reciever/Unit1/N36:6 Reciever/Unit1/N36:5 0.5
5 Reciever/Unit1/N36:5 Reciever/Unit1/N36:4 1.851786
6 Reciever/Unit1/N36:7 Reciever/Unit1/N36:6 0.2325

*END

*D_NET Reciever/Unit1/N37 0.08373699 //LENGTH 1.124 LUMPCC 0 DR

*CONN
*I Reciever\/Unit1\/U17:Y O *L 0 *C 1.668 36.020
*I Reciever\/Unit1\/clock_ticks_reg[8]:D I *L 0.540354 *C 2.732 36.020
*N Reciever/Unit1/N37:2 *C 2.731 36.020
*N Reciever/Unit1/N37:3 *C 1.669 36.020

*CAP
0 Reciever\/Unit1\/U17:Y 0.001
1 Reciever\/Unit1\/clock_ticks_reg[8]:D 0.001
2 Reciever/Unit1/N37:2 0.0408685
3 Reciever/Unit1/N37:3 0.0408685

*RES
0 Reciever\/Unit1\/U17:Y Reciever/Unit1/N37:3 1
1 Reciever/Unit1/N37:2 Reciever\/Unit1\/clock_ticks_reg[8]:D 1
2 Reciever/Unit1/N37:3 Reciever/Unit1/N37:2 1.896429

*END

*D_NET Reciever/Unit1/N38 0.07505725 //LENGTH 0.997 LUMPCC 0 DR

*CONN
*I Reciever\/Unit1\/U16:Y O *L 0 *C 13.980 34.804
*I Reciever\/Unit1\/clock_ticks_reg[9]:D I *L 0.540354 *C 14.892 34.804
*N Reciever/Unit1/N38:2 *C 14.891 34.804
*N Reciever/Unit1/N38:3 *C 13.994 34.804

*CAP
0 Reciever\/Unit1\/U16:Y 0.001
1 Reciever\/Unit1\/clock_ticks_reg[9]:D 0.001
2 Reciever/Unit1/N38:2 0.03652862
3 Reciever/Unit1/N38:3 0.03652862

*RES
0 Reciever\/Unit1\/U16:Y Reciever/Unit1/N38:3 1
1 Reciever/Unit1/N38:2 Reciever\/Unit1\/clock_ticks_reg[9]:D 1
2 Reciever/Unit1/N38:3 Reciever/Unit1/N38:2 1.602679

*END

*D_NET Reciever/Unit1/n7 0.2851274 //LENGTH 3.370 LUMPCC 0 DR

*CONN
*I Reciever\/Unit1\/U4:Y O *L 0 *C 13.676 27.964
*I Reciever\/Unit1\/HFSBUF_344_0:A I *L 0.553217 *C 12.156 29.484
*N Reciever/Unit1/n7:2 *C 12.156 29.471
*N Reciever/Unit1/n7:3 *C 12.156 28.585
*N Reciever/Unit1/n7:4 *C 12.170 28.572
*N Reciever/Unit1/n7:5 *C 13.663 28.572
*N Reciever/Unit1/n7:6 *C 13.676 28.559
*N Reciever/Unit1/n7:7 *C 13.676 27.978

*CAP
0 Reciever\/Unit1\/U4:Y 0.001
1 Reciever\/Unit1\/HFSBUF_344_0:A 0.001
2 Reciever/Unit1/n7:2 0.03832545
3 Reciever/Unit1/n7:3 0.03975813
4 Reciever/Unit1/n7:4 0.05710583
5 Reciever/Unit1/n7:5 0.05710583
6 Reciever/Unit1/n7:6 0.04613242
7 Reciever/Unit1/n7:7 0.04469974

*RES
0 Reciever\/Unit1\/U4:Y Reciever/Unit1/n7:7 1
1 Reciever/Unit1/n7:2 Reciever\/Unit1\/HFSBUF_344_0:A 1
2 Reciever/Unit1/n7:3 Reciever/Unit1/n7:2 1.580357
3 Reciever/Unit1/n7:4 Reciever/Unit1/n7:3 0.5
4 Reciever/Unit1/n7:6 Reciever/Unit1/n7:5 0.5
5 Reciever/Unit1/n7:5 Reciever/Unit1/n7:4 2.666071
6 Reciever/Unit1/n7:7 Reciever/Unit1/n7:6 1.0375

*END

*D_NET Reciever/Unit1/n8 0.1773309 //LENGTH 1.923 LUMPCC 0 DR

*CONN
*I Reciever\/Unit1\/U5:Y O *L 0 *C 8.399 24.633
*I Reciever\/Unit1\/U29:A3 I *L 0.44295 *C 8.204 26.140
*N Reciever/Unit1/n8:2 *C 8.204 26.127
*N Reciever/Unit1/n8:3 *C 8.204 24.620
*N Reciever/Unit1/n8:4 *C 8.355 24.620
*N Reciever/Unit1/n8:5 *C 8.356 24.620

*CAP
0 Reciever\/Unit1\/U5:Y 0.009935742
1 Reciever\/Unit1\/U29:A3 0.001
2 Reciever/Unit1/n8:2 0.07051089
3 Reciever/Unit1/n8:3 0.08220754
4 Reciever/Unit1/n8:4 0.005816347
5 Reciever/Unit1/n8:5 0.007860344

*RES
0 Reciever\/Unit1\/U5:Y Reciever/Unit1/n8:5 0.09166668
1 Reciever/Unit1/n8:2 Reciever\/Unit1\/U29:A3 1
2 Reciever/Unit1/n8:5 Reciever/Unit1/n8:4 1
3 Reciever/Unit1/n8:4 Reciever/Unit1/n8:3 0.2696429
4 Reciever/Unit1/n8:3 Reciever/Unit1/n8:2 2.690179

*END

*D_NET Reciever/Unit1/n9 0.2141629 //LENGTH 2.159 LUMPCC 0 DR

*CONN
*I Reciever\/Unit1\/U6:Y O *L 0 *C 13.828 26.292
*I Reciever\/Unit1\/U4:A1 I *L 0.654877 *C 13.524 27.812
*N Reciever/Unit1/n9:2 *C 13.524 27.799
*N Reciever/Unit1/n9:3 *C 13.524 26.457
*N Reciever/Unit1/n9:4 *C 13.538 26.444
*N Reciever/Unit1/n9:5 *C 13.815 26.444
*N Reciever/Unit1/n9:6 *C 13.828 26.431
*N Reciever/Unit1/n9:7 *C 13.828 26.292

*CAP
0 Reciever\/Unit1\/U6:Y 0.001
1 Reciever\/Unit1\/U4:A1 0.001
2 Reciever/Unit1/n9:2 0.08356482
3 Reciever/Unit1/n9:3 0.0849975
4 Reciever/Unit1/n9:4 0.01273801
5 Reciever/Unit1/n9:5 0.01273801
6 Reciever/Unit1/n9:6 0.009778652
7 Reciever/Unit1/n9:7 0.008345975

*RES
0 Reciever\/Unit1\/U6:Y Reciever/Unit1/n9:7 1
1 Reciever/Unit1/n9:2 Reciever\/Unit1\/U4:A1 1
2 Reciever/Unit1/n9:3 Reciever/Unit1/n9:2 2.394643
3 Reciever/Unit1/n9:4 Reciever/Unit1/n9:3 0.5
4 Reciever/Unit1/n9:6 Reciever/Unit1/n9:5 0.5
5 Reciever/Unit1/n9:5 Reciever/Unit1/n9:4 0.4946429
6 Reciever/Unit1/n9:7 Reciever/Unit1/n9:6 0.2325

*END

*D_NET Reciever/Unit1/n10_CDR2 0.515847 //LENGTH 6.106 LUMPCC 0 DR

*CONN
*I Reciever\/Unit1\/U29:Y O *L 0 *C 9.116 26.140
*I Reciever\/Unit1\/U4:A3 I *L 0.55484 *C 13.220 27.812
*N Reciever/Unit1/n10_CDR2:2 *C 13.220 27.799
*N Reciever/Unit1/n10_CDR2:3 *C 13.220 26.762
*N Reciever/Unit1/n10_CDR2:4 *C 13.207 26.748
*N Reciever/Unit1/n10_CDR2:5 *C 9.130 26.748
*N Reciever/Unit1/n10_CDR2:6 *C 9.116 26.735
*N Reciever/Unit1/n10_CDR2:7 *C 9.116 26.154

*CAP
0 Reciever\/Unit1\/U29:Y 0.001
1 Reciever\/Unit1\/U4:A3 0.001
2 Reciever/Unit1/n10_CDR2:2 0.05980934
3 Reciever/Unit1/n10_CDR2:3 0.06124202
4 Reciever/Unit1/n10_CDR2:4 0.1552822
5 Reciever/Unit1/n10_CDR2:5 0.1552822
6 Reciever/Unit1/n10_CDR2:6 0.04183202
7 Reciever/Unit1/n10_CDR2:7 0.04039934

*RES
0 Reciever\/Unit1\/U29:Y Reciever/Unit1/n10_CDR2:7 1
1 Reciever/Unit1/n10_CDR2:2 Reciever\/Unit1\/U4:A3 1
2 Reciever/Unit1/n10_CDR2:3 Reciever/Unit1/n10_CDR2:2 1.851786
3 Reciever/Unit1/n10_CDR2:4 Reciever/Unit1/n10_CDR2:3 0.5
4 Reciever/Unit1/n10_CDR2:6 Reciever/Unit1/n10_CDR2:5 0.5
5 Reciever/Unit1/n10_CDR2:5 Reciever/Unit1/n10_CDR2:4 7.280358
6 Reciever/Unit1/n10_CDR2:7 Reciever/Unit1/n10_CDR2:6 1.0375

*END

*D_NET Reciever/Unit1/n11_CDR2 0.5290204 //LENGTH 5.382 LUMPCC 0 DR

*CONN
*I Reciever\/Unit1\/ctmTdsLR_5_290:Y O *L 0 *C 11.852 31.460
*I Reciever\/Unit1\/U4:A4 I *L 0.540252 *C 13.068 27.964
*N Reciever/Unit1/n11_CDR2:2 *C 13.069 27.964
*N Reciever/Unit1/n11_CDR2:3 *C 13.220 27.964
*N Reciever/Unit1/n11_CDR2:4 *C 13.220 31.295
*N Reciever/Unit1/n11_CDR2:5 *C 13.207 31.308
*N Reciever/Unit1/n11_CDR2:6 *C 11.866 31.308
*N Reciever/Unit1/n11_CDR2:7 *C 11.852 31.308
*N Reciever/Unit1/n11_CDR2:8 *C 11.852 31.448

*CAP
0 Reciever\/Unit1\/ctmTdsLR_5_290:Y 0.001
1 Reciever\/Unit1\/U4:A4 0.001
2 Reciever/Unit1/n11_CDR2:2 0.004602537
3 Reciever/Unit1/n11_CDR2:3 0.1944657
4 Reciever/Unit1/n11_CDR2:4 0.1836861
5 Reciever/Unit1/n11_CDR2:5 0.06346213
6 Reciever/Unit1/n11_CDR2:6 0.06346213
7 Reciever/Unit1/n11_CDR2:7 0.009387281
8 Reciever/Unit1/n11_CDR2:8 0.007954601

*RES
0 Reciever\/Unit1\/ctmTdsLR_5_290:Y Reciever/Unit1/n11_CDR2:8 1
1 Reciever/Unit1/n11_CDR2:2 Reciever\/Unit1\/U4:A4 1
2 Reciever/Unit1/n11_CDR2:4 Reciever/Unit1/n11_CDR2:3 5.947322
3 Reciever/Unit1/n11_CDR2:5 Reciever/Unit1/n11_CDR2:4 0.5
4 Reciever/Unit1/n11_CDR2:7 Reciever/Unit1/n11_CDR2:6 0.5
5 Reciever/Unit1/n11_CDR2:6 Reciever/Unit1/n11_CDR2:5 2.394643
6 Reciever/Unit1/n11_CDR2:8 Reciever/Unit1/n11_CDR2:7 0.2325
7 Reciever/Unit1/n11_CDR2:3 Reciever/Unit1/n11_CDR2:2 0.2696429

*END

*D_NET Reciever/Unit1/n15 0.967731 //LENGTH 11.027 LUMPCC 0 DR

*CONN
*I Reciever\/Unit1\/U36:Y O *L 0 *C 15.348 30.244
*I Reciever\/Unit1\/ctmTdsLR_3_288:A3 I *L 0.489651 *C 13.676 31.004
*I Reciever\/Unit1\/U34:A1 I *L 0.592288 *C 13.068 29.636
*I Reciever\/Unit1\/U14:A1 I *L 0.954271 *C 11.700 25.988
*I Reciever\/Unit1\/ctmTdsLR_1_286:A I *L 0.577904 *C 12.460 31.308
*N Reciever/Unit1/n15:5 *C 12.460 31.295
*N Reciever/Unit1/n15:6 *C 12.460 30.713
*N Reciever/Unit1/n15:7 *C 12.474 30.700
*N Reciever/Unit1/n15:8 *C 11.700 26.002
*N Reciever/Unit1/n15:9 *C 11.700 29.636
*N Reciever/Unit1/n15:10 *C 13.068 29.649
*N Reciever/Unit1/n15:11 *C 13.068 30.687
*N Reciever/Unit1/n15:12 *C 13.068 30.700
*N Reciever/Unit1/n15:13 *C 13.676 30.991
*N Reciever/Unit1/n15:14 *C 13.676 30.713
*N Reciever/Unit1/n15:15 *C 13.676 30.700
*N Reciever/Unit1/n15:16 *C 15.335 30.700
*N Reciever/Unit1/n15:17 *C 15.348 30.687
*N Reciever/Unit1/n15:18 *C 15.348 30.258

*CAP
0 Reciever\/Unit1\/U36:Y 0.001
1 Reciever\/Unit1\/ctmTdsLR_3_288:A3 0.001
2 Reciever\/Unit1\/U34:A1 0.001
3 Reciever\/Unit1\/U14:A1 0.001
4 Reciever\/Unit1\/ctmTdsLR_1_286:A 0.001
5 Reciever/Unit1/n15:5 0.02790169
6 Reciever/Unit1/n15:6 0.02933437
7 Reciever/Unit1/n15:7 0.02548214
8 Reciever/Unit1/n15:8 0.152078
9 Reciever/Unit1/n15:9 0.216712
10 Reciever/Unit1/n15:10 0.1352871
11 Reciever/Unit1/n15:11 0.07589056
12 Reciever/Unit1/n15:12 0.04979108
13 Reciever/Unit1/n15:13 0.01801518
14 Reciever/Unit1/n15:14 0.01944786
15 Reciever/Unit1/n15:15 0.08693248
16 Reciever/Unit1/n15:16 0.06262354
17 Reciever/Unit1/n15:17 0.03191874
18 Reciever/Unit1/n15:18 0.03131622

*RES
0 Reciever\/Unit1\/U36:Y Reciever/Unit1/n15:18 1
1 Reciever/Unit1/n15:17 Reciever/Unit1/n15:16 0.5
2 Reciever/Unit1/n15:16 Reciever/Unit1/n15:15 2.961607
3 Reciever/Unit1/n15:18 Reciever/Unit1/n15:17 0.7660714
4 Reciever/Unit1/n15:14 Reciever/Unit1/n15:13 0.4946429
5 Reciever/Unit1/n15:15 Reciever/Unit1/n15:14 0.5
6 Reciever/Unit1/n15:15 Reciever/Unit1/n15:12 1.085714
7 Reciever/Unit1/n15:13 Reciever\/Unit1\/ctmTdsLR_3_288:A3 1
8 Reciever/Unit1/n15:11 Reciever/Unit1/n15:10 1.851786
9 Reciever/Unit1/n15:12 Reciever/Unit1/n15:11 0.5
10 Reciever/Unit1/n15:12 Reciever/Unit1/n15:7 1.061607
11 Reciever/Unit1/n15:10 Reciever\/Unit1\/U34:A1 1
12 Reciever/Unit1/n15:10 Reciever/Unit1/n15:9 2.442857
13 Reciever/Unit1/n15:6 Reciever/Unit1/n15:5 1.0375
14 Reciever/Unit1/n15:7 Reciever/Unit1/n15:6 0.5
15 Reciever/Unit1/n15:5 Reciever\/Unit1\/ctmTdsLR_1_286:A 1
16 Reciever/Unit1/n15:8 Reciever\/Unit1\/U14:A1 1
17 Reciever/Unit1/n15:9 Reciever/Unit1/n15:8 6.490179

*END

*D_NET Reciever/Unit1/n16 1.962456 //LENGTH 21.336 LUMPCC 0 DR

*CONN
*I Reciever\/Unit1\/U37:Y O *L 0 *C 14.132 29.636
*I Reciever\/Unit1\/U30:A2 I *L 0.46235 *C 14.284 27.964
*I Reciever\/Unit1\/U31:A1 I *L 0.545591 *C 10.028 31.004
*I Reciever\/Unit1\/ctmTdsLR_4_289:A1 I *L 0.954271 *C 8.660 32.676
*I Reciever\/Unit1\/U5:A1 I *L 0.954271 *C 6.988 24.772
*N Reciever/Unit1/n16:5 *C 6.988 24.786
*N Reciever/Unit1/n16:6 *C 6.988 30.079
*N Reciever/Unit1/n16:7 *C 7.002 30.092
*N Reciever/Unit1/n16:8 *C 8.660 32.663
*N Reciever/Unit1/n16:9 *C 10.028 30.872
*N Reciever/Unit1/n16:10 *C 10.028 30.992
*N Reciever/Unit1/n16:11 *C 10.014 31.004
*N Reciever/Unit1/n16:12 *C 8.674 31.004
*N Reciever/Unit1/n16:13 *C 8.660 31.018
*N Reciever/Unit1/n16:14 *C 8.660 32.524
*N Reciever/Unit1/n16:15 *C 8.508 32.524
*N Reciever/Unit1/n16:16 *C 8.508 30.106
*N Reciever/Unit1/n16:17 *C 8.508 30.092
*N Reciever/Unit1/n16:18 *C 14.119 30.092
*N Reciever/Unit1/n16:19 *C 14.132 30.079
*N Reciever/Unit1/n16:20 *C 14.284 27.965
*N Reciever/Unit1/n16:21 *C 14.284 28.572
*N Reciever/Unit1/n16:22 *C 14.132 28.572
*N Reciever/Unit1/n16:23 *C 14.132 29.636

*CAP
0 Reciever\/Unit1\/U37:Y 0.001
1 Reciever\/Unit1\/U30:A2 0.001
2 Reciever\/Unit1\/U31:A1 0.001
3 Reciever\/Unit1\/ctmTdsLR_4_289:A1 0.001
4 Reciever\/Unit1\/U5:A1 0.001
5 Reciever/Unit1/n16:5 0.2444717
6 Reciever/Unit1/n16:6 0.2459044
7 Reciever/Unit1/n16:7 0.05498748
8 Reciever/Unit1/n16:8 0.005111681
9 Reciever/Unit1/n16:9 0.01291426
10 Reciever/Unit1/n16:10 0.004760293
11 Reciever/Unit1/n16:11 0.06258119
12 Reciever/Unit1/n16:12 0.06455804
13 Reciever/Unit1/n16:13 0.08968375
14 Reciever/Unit1/n16:14 0.109153
15 Reciever/Unit1/n16:15 0.1427755
16 Reciever/Unit1/n16:16 0.1322227
17 Reciever/Unit1/n16:17 0.2951802
18 Reciever/Unit1/n16:18 0.2378205
19 Reciever/Unit1/n16:19 0.02526183
20 Reciever/Unit1/n16:20 0.03182941
21 Reciever/Unit1/n16:21 0.04377258
22 Reciever/Unit1/n16:22 0.06947483
23 Reciever/Unit1/n16:23 0.08499276

*RES
0 Reciever\/Unit1\/U37:Y Reciever/Unit1/n16:23 1
1 Reciever/Unit1/n16:20 Reciever\/Unit1\/U30:A2 1
2 Reciever/Unit1/n16:23 Reciever/Unit1/n16:22 1.9
3 Reciever/Unit1/n16:23 Reciever/Unit1/n16:19 0.7901785
4 Reciever/Unit1/n16:8 Reciever\/Unit1\/ctmTdsLR_4_289:A1 1
5 Reciever/Unit1/n16:13 Reciever/Unit1/n16:12 0.5
6 Reciever/Unit1/n16:12 Reciever/Unit1/n16:11 2.394643
7 Reciever/Unit1/n16:10 Reciever\/Unit1\/U31:A1 1
8 Reciever/Unit1/n16:10 Reciever/Unit1/n16:9 0.1991667
9 Reciever/Unit1/n16:11 Reciever/Unit1/n16:10 0.5
10 Reciever/Unit1/n16:19 Reciever/Unit1/n16:18 0.5
11 Reciever/Unit1/n16:18 Reciever/Unit1/n16:17 10.01875
12 Reciever/Unit1/n16:16 Reciever/Unit1/n16:15 4.31875
13 Reciever/Unit1/n16:17 Reciever/Unit1/n16:16 0.5
14 Reciever/Unit1/n16:17 Reciever/Unit1/n16:7 2.690179
15 Reciever/Unit1/n16:6 Reciever/Unit1/n16:5 9.451786
16 Reciever/Unit1/n16:7 Reciever/Unit1/n16:6 0.5
17 Reciever/Unit1/n16:5 Reciever\/Unit1\/U5:A1 1
18 Reciever/Unit1/n16:15 Reciever/Unit1/n16:14 0.2714286
19 Reciever/Unit1/n16:14 Reciever/Unit1/n16:13 2.690179
20 Reciever/Unit1/n16:14 Reciever/Unit1/n16:8 0.2473214
21 Reciever/Unit1/n16:22 Reciever/Unit1/n16:21 0.2714286
22 Reciever/Unit1/n16:21 Reciever/Unit1/n16:20 1.083929

*END

*D_NET Reciever/Unit1/n17 0.1788549 //LENGTH 1.923 LUMPCC 0 DR

*CONN
*I Reciever\/Unit1\/U12:Y O *L 0 *C 8.247 27.977
*I Reciever\/Unit1\/U29:A2 I *L 0.490862 *C 8.356 26.444
*N Reciever/Unit1/n17:2 *C 8.355 26.444
*N Reciever/Unit1/n17:3 *C 8.204 26.444
*N Reciever/Unit1/n17:4 *C 8.204 27.951
*N Reciever/Unit1/n17:5 *C 8.204 27.964

*CAP
0 Reciever\/Unit1\/U12:Y 0.009345177
1 Reciever\/Unit1\/U29:A2 0.001
2 Reciever/Unit1/n17:2 0.005094338
3 Reciever/Unit1/n17:3 0.08356014
4 Reciever/Unit1/n17:4 0.07258551
5 Reciever/Unit1/n17:5 0.007269778

*RES
0 Reciever\/Unit1\/U12:Y Reciever/Unit1/n17:5 0.09166668
1 Reciever/Unit1/n17:2 Reciever\/Unit1\/U29:A2 1
2 Reciever/Unit1/n17:5 Reciever/Unit1/n17:4 1
3 Reciever/Unit1/n17:4 Reciever/Unit1/n17:3 2.690179
4 Reciever/Unit1/n17:3 Reciever/Unit1/n17:2 0.2696429

*END

*D_NET Reciever/Unit1/n18 0.2308511 //LENGTH 2.590 LUMPCC 0 DR

*CONN
*I Reciever\/Unit1\/U14:Y O *L 0 *C 10.332 26.444
*I Reciever\/Unit1\/U29:A1 I *L 0.531407 *C 8.508 26.140
*N Reciever/Unit1/n18:2 *C 10.332 26.262
*N Reciever/Unit1/n18:3 *C 8.508 26.154
*N Reciever/Unit1/n18:4 *C 8.508 26.431
*N Reciever/Unit1/n18:5 *C 8.521 26.444
*N Reciever/Unit1/n18:6 *C 10.319 26.444
*N Reciever/Unit1/n18:7 *C 10.332 26.431

*CAP
0 Reciever\/Unit1\/U14:Y 0.001
1 Reciever\/Unit1\/U29:A1 0.001
2 Reciever/Unit1/n18:2 0.01244641
3 Reciever/Unit1/n18:3 0.01625013
4 Reciever/Unit1/n18:4 0.01768281
5 Reciever/Unit1/n18:5 0.08807135
6 Reciever/Unit1/n18:6 0.08807135
7 Reciever/Unit1/n18:7 0.00632902

*RES
0 Reciever\/Unit1\/U14:Y Reciever/Unit1/n18:7 1
1 Reciever/Unit1/n18:3 Reciever\/Unit1\/U29:A1 1
2 Reciever/Unit1/n18:4 Reciever/Unit1/n18:3 0.4946429
3 Reciever/Unit1/n18:5 Reciever/Unit1/n18:4 0.5
4 Reciever/Unit1/n18:7 Reciever/Unit1/n18:6 0.5
5 Reciever/Unit1/n18:7 Reciever/Unit1/n18:2 0.2825
6 Reciever/Unit1/n18:6 Reciever/Unit1/n18:5 3.208929

*END

*D_NET Reciever/Unit1/n19 0.2738898 //LENGTH 2.852 LUMPCC 0 DR

*CONN
*I Reciever\/Unit1\/U13:Y O *L 0 *C 10.678 29.472
*I Reciever\/Unit1\/ctmTdsLR_5_290:A2 I *L 0.426573 *C 11.092 31.308
*N Reciever/Unit1/n19:2 *C 11.092 31.126
*N Reciever/Unit1/n19:3 *C 11.092 31.296
*N Reciever/Unit1/n19:4 *C 11.079 31.308
*N Reciever/Unit1/n19:5 *C 10.649 31.308
*N Reciever/Unit1/n19:6 *C 10.636 31.295
*N Reciever/Unit1/n19:7 *C 10.636 29.498
*N Reciever/Unit1/n19:8 *C 10.636 29.484

*CAP
0 Reciever\/Unit1\/U13:Y 0.0104407
1 Reciever\/Unit1\/ctmTdsLR_5_290:A2 0.001
2 Reciever/Unit1/n19:2 0.01826866
3 Reciever/Unit1/n19:3 0.01209154
4 Reciever/Unit1/n19:4 0.01929888
5 Reciever/Unit1/n19:5 0.01929888
6 Reciever/Unit1/n19:6 0.09241451
7 Reciever/Unit1/n19:7 0.09271132
8 Reciever/Unit1/n19:8 0.0083653

*RES
0 Reciever\/Unit1\/U13:Y Reciever/Unit1/n19:8 0.09166668
1 Reciever/Unit1/n19:3 Reciever\/Unit1\/ctmTdsLR_5_290:A2 1
2 Reciever/Unit1/n19:3 Reciever/Unit1/n19:2 0.2825
3 Reciever/Unit1/n19:4 Reciever/Unit1/n19:3 0.5
4 Reciever/Unit1/n19:6 Reciever/Unit1/n19:5 0.5
5 Reciever/Unit1/n19:5 Reciever/Unit1/n19:4 0.7660715
6 Reciever/Unit1/n19:8 Reciever/Unit1/n19:7 1
7 Reciever/Unit1/n19:7 Reciever/Unit1/n19:6 3.208929

*END

*D_NET Reciever/Unit1/n20 1.281501 //LENGTH 13.226 LUMPCC 0 DR

*CONN
*I Reciever\/Unit1\/U33:Y O *L 0 *C 17.628 27.812
*I Reciever\/Unit1\/U32:A2 I *L 0.46235 *C 15.500 27.964
*I Reciever\/Unit1\/U31:A2 I *L 0.46235 *C 10.180 31.308
*I Reciever\/Unit1\/U13:A1 I *L 0.954271 *C 9.268 29.332
*N Reciever/Unit1/n20:4 *C 9.268 29.346
*N Reciever/Unit1/n20:5 *C 9.268 29.774
*N Reciever/Unit1/n20:6 *C 9.282 29.788
*N Reciever/Unit1/n20:7 *C 10.180 31.307
*N Reciever/Unit1/n20:8 *C 10.180 29.802
*N Reciever/Unit1/n20:9 *C 10.180 29.788
*N Reciever/Unit1/n20:10 *C 15.487 29.788
*N Reciever/Unit1/n20:11 *C 15.500 29.774
*N Reciever/Unit1/n20:12 *C 15.500 27.965
*N Reciever/Unit1/n20:13 *C 15.500 28.268
*N Reciever/Unit1/n20:14 *C 15.514 28.268
*N Reciever/Unit1/n20:15 *C 17.614 28.268
*N Reciever/Unit1/n20:16 *C 17.628 28.255
*N Reciever/Unit1/n20:17 *C 17.628 27.826

*CAP
0 Reciever\/Unit1\/U33:Y 0.001
1 Reciever\/Unit1\/U32:A2 0.001
2 Reciever\/Unit1\/U31:A2 0.001
3 Reciever\/Unit1\/U13:A1 0.001
4 Reciever/Unit1/n20:4 0.02361189
5 Reciever/Unit1/n20:5 0.02504456
6 Reciever/Unit1/n20:6 0.04491479
7 Reciever/Unit1/n20:7 0.06896912
8 Reciever/Unit1/n20:8 0.07022884
9 Reciever/Unit1/n20:9 0.3091865
10 Reciever/Unit1/n20:10 0.2618996
11 Reciever/Unit1/n20:11 0.08962519
12 Reciever/Unit1/n20:12 0.01682719
13 Reciever/Unit1/n20:13 0.1100843
14 Reciever/Unit1/n20:14 0.09806357
15 Reciever/Unit1/n20:15 0.09806357
16 Reciever/Unit1/n20:16 0.03120707
17 Reciever/Unit1/n20:17 0.02977439

*RES
0 Reciever\/Unit1\/U33:Y Reciever/Unit1/n20:17 1
1 Reciever/Unit1/n20:12 Reciever\/Unit1\/U32:A2 1
2 Reciever/Unit1/n20:13 Reciever/Unit1/n20:12 0.5410715
3 Reciever/Unit1/n20:13 Reciever/Unit1/n20:11 2.690179
4 Reciever/Unit1/n20:14 Reciever/Unit1/n20:13 0.5
5 Reciever/Unit1/n20:16 Reciever/Unit1/n20:15 0.5
6 Reciever/Unit1/n20:15 Reciever/Unit1/n20:14 3.751786
7 Reciever/Unit1/n20:17 Reciever/Unit1/n20:16 0.7660714
8 Reciever/Unit1/n20:11 Reciever/Unit1/n20:10 0.5
9 Reciever/Unit1/n20:10 Reciever/Unit1/n20:9 9.475893
10 Reciever/Unit1/n20:8 Reciever/Unit1/n20:7 2.688393
11 Reciever/Unit1/n20:9 Reciever/Unit1/n20:8 0.5
12 Reciever/Unit1/n20:9 Reciever/Unit1/n20:6 1.604464
13 Reciever/Unit1/n20:7 Reciever\/Unit1\/U31:A2 1
14 Reciever/Unit1/n20:5 Reciever/Unit1/n20:4 0.7660715
15 Reciever/Unit1/n20:6 Reciever/Unit1/n20:5 0.5
16 Reciever/Unit1/n20:4 Reciever\/Unit1\/U13:A1 1

*END

*D_NET Reciever/Unit1/n21 1.115225 //LENGTH 12.281 LUMPCC 0 DR

*CONN
*I Reciever\/Unit1\/U35:Y O *L 0 *C 17.020 29.636
*I Reciever\/Unit1\/U34:A2 I *L 0.529633 *C 12.916 29.484
*I Reciever\/Unit1\/U12:A1 I *L 0.954271 *C 6.836 28.116
*N Reciever/Unit1/n21:3 *C 6.836 28.130
*N Reciever/Unit1/n21:4 *C 6.836 29.471
*N Reciever/Unit1/n21:5 *C 6.849 29.484
*N Reciever/Unit1/n21:6 *C 12.916 29.302
*N Reciever/Unit1/n21:7 *C 12.916 29.472
*N Reciever/Unit1/n21:8 *C 12.916 29.484
*N Reciever/Unit1/n21:9 *C 17.006 29.484
*N Reciever/Unit1/n21:10 *C 17.020 29.484
*N Reciever/Unit1/n21:11 *C 17.020 29.623

*CAP
0 Reciever\/Unit1\/U35:Y 0.001
1 Reciever\/Unit1\/U34:A2 0.001
2 Reciever\/Unit1\/U12:A1 0.001
3 Reciever/Unit1/n21:3 0.08872853
4 Reciever/Unit1/n21:4 0.09016121
5 Reciever/Unit1/n21:5 0.2543098
6 Reciever/Unit1/n21:6 0.01736514
7 Reciever/Unit1/n21:7 0.01118803
8 Reciever/Unit1/n21:8 0.4400521
9 Reciever/Unit1/n21:9 0.1833701
10 Reciever/Unit1/n21:10 0.01424137
11 Reciever/Unit1/n21:11 0.01280869

*RES
0 Reciever\/Unit1\/U35:Y Reciever/Unit1/n21:11 1
1 Reciever/Unit1/n21:10 Reciever/Unit1/n21:9 0.5
2 Reciever/Unit1/n21:9 Reciever/Unit1/n21:8 7.304465
3 Reciever/Unit1/n21:11 Reciever/Unit1/n21:10 0.2325
4 Reciever/Unit1/n21:7 Reciever\/Unit1\/U34:A2 1
5 Reciever/Unit1/n21:7 Reciever/Unit1/n21:6 0.2825
6 Reciever/Unit1/n21:8 Reciever/Unit1/n21:7 0.5
7 Reciever/Unit1/n21:8 Reciever/Unit1/n21:5 10.83304
8 Reciever/Unit1/n21:4 Reciever/Unit1/n21:3 2.394643
9 Reciever/Unit1/n21:5 Reciever/Unit1/n21:4 0.5
10 Reciever/Unit1/n21:3 Reciever\/Unit1\/U12:A1 1

*END

*D_NET Reciever/Unit1/n22 0.196182 //LENGTH 2.401 LUMPCC 0 DR

*CONN
*I Reciever\/Unit1\/U8:Y O *L 0 *C 15.154 31.321
*I Reciever\/Unit1\/ctmTdsLR_3_288:A5 I *L 0.525068 *C 13.524 31.460
*N Reciever/Unit1/n22:2 *C 15.196 31.126
*N Reciever/Unit1/n22:3 *C 13.524 31.448
*N Reciever/Unit1/n22:4 *C 13.524 31.308
*N Reciever/Unit1/n22:5 *C 13.538 31.308
*N Reciever/Unit1/n22:6 *C 15.183 31.308
*N Reciever/Unit1/n22:7 *C 15.196 31.296
*N Reciever/Unit1/n22:8 *C 15.196 31.308

*CAP
0 Reciever\/Unit1\/U8:Y 0.009642804
1 Reciever\/Unit1\/ctmTdsLR_3_288:A5 0.001
2 Reciever/Unit1/n22:2 0.01236492
3 Reciever/Unit1/n22:3 0.01032942
4 Reciever/Unit1/n22:4 0.0117621
5 Reciever/Unit1/n22:5 0.067799
6 Reciever/Unit1/n22:6 0.067799
7 Reciever/Unit1/n22:7 0.007917301
8 Reciever/Unit1/n22:8 0.007567406

*RES
0 Reciever\/Unit1\/U8:Y Reciever/Unit1/n22:8 0.09166668
1 Reciever/Unit1/n22:3 Reciever\/Unit1\/ctmTdsLR_3_288:A5 1
2 Reciever/Unit1/n22:4 Reciever/Unit1/n22:3 0.2325
3 Reciever/Unit1/n22:5 Reciever/Unit1/n22:4 0.5
4 Reciever/Unit1/n22:7 Reciever/Unit1/n22:6 0.5
5 Reciever/Unit1/n22:7 Reciever/Unit1/n22:2 0.2825
6 Reciever/Unit1/n22:6 Reciever/Unit1/n22:5 2.9375
7 Reciever/Unit1/n22:8 Reciever/Unit1/n22:7 1

*END

*D_NET Reciever/Unit1/n23 0.259593 //LENGTH 2.742 LUMPCC 0 DR

*CONN
*I Reciever\/Unit1\/U7:Y O *L 0 *C 9.116 30.700
*I Reciever\/Unit1\/ctmTdsLR_5_290:A4 I *L 0.42184 *C 10.788 31.308
*N Reciever/Unit1/n23:2 *C 9.116 30.518
*N Reciever/Unit1/n23:3 *C 10.788 31.295
*N Reciever/Unit1/n23:4 *C 10.788 30.713
*N Reciever/Unit1/n23:5 *C 10.774 30.700
*N Reciever/Unit1/n23:6 *C 9.130 30.700
*N Reciever/Unit1/n23:7 *C 9.116 30.688

*CAP
0 Reciever\/Unit1\/U7:Y 0.001
1 Reciever\/Unit1\/ctmTdsLR_5_290:A4 0.001
2 Reciever/Unit1/n23:2 0.01634607
3 Reciever/Unit1/n23:3 0.04369061
4 Reciever/Unit1/n23:4 0.04512329
5 Reciever/Unit1/n23:5 0.07110216
6 Reciever/Unit1/n23:6 0.07110216
7 Reciever/Unit1/n23:7 0.01022868

*RES
0 Reciever\/Unit1\/U7:Y Reciever/Unit1/n23:7 1
1 Reciever/Unit1/n23:3 Reciever\/Unit1\/ctmTdsLR_5_290:A4 1
2 Reciever/Unit1/n23:4 Reciever/Unit1/n23:3 1.0375
3 Reciever/Unit1/n23:5 Reciever/Unit1/n23:4 0.5
4 Reciever/Unit1/n23:7 Reciever/Unit1/n23:6 0.5
5 Reciever/Unit1/n23:7 Reciever/Unit1/n23:2 0.2825
6 Reciever/Unit1/n23:6 Reciever/Unit1/n23:5 2.9375

*END

*D_NET Reciever/Unit1/n24 0.361264 //LENGTH 3.110 LUMPCC 0 DR

*CONN
*I Reciever\/Unit1\/U9:Y O *L 0 *C 13.524 25.228
*I Reciever\/Unit1\/U4:A2 I *L 0.559393 *C 13.372 27.964
*N Reciever/Unit1/n24:2 *C 13.372 27.951
*N Reciever/Unit1/n24:3 *C 13.372 26.292
*N Reciever/Unit1/n24:4 *C 13.524 26.292
*N Reciever/Unit1/n24:5 *C 13.524 25.242

*CAP
0 Reciever\/Unit1\/U9:Y 0.001
1 Reciever\/Unit1\/U4:A2 0.001
2 Reciever/Unit1/n24:2 0.1175439
3 Reciever/Unit1/n24:3 0.129257
4 Reciever/Unit1/n24:4 0.06118997
5 Reciever/Unit1/n24:5 0.05127305

*RES
0 Reciever\/Unit1\/U9:Y Reciever/Unit1/n24:5 1
1 Reciever/Unit1/n24:2 Reciever\/Unit1\/U4:A2 1
2 Reciever/Unit1/n24:5 Reciever/Unit1/n24:4 1.875893
3 Reciever/Unit1/n24:3 Reciever/Unit1/n24:2 2.961607
4 Reciever/Unit1/n24:4 Reciever/Unit1/n24:3 0.2714286

*END

*D_NET Reciever/Unit1/n25 0.4535392 //LENGTH 5.655 LUMPCC 0 DR

*CONN
*I Reciever\/Unit1\/U30:Y O *L 0 *C 14.588 27.812
*I Reciever\/Unit1\/U9:A1 I *L 1.174364 *C 12.308 24.772
*N Reciever/Unit1/n25:2 *C 12.308 24.772
*N Reciever/Unit1/n25:3 *C 12.308 24.912
*N Reciever/Unit1/n25:4 *C 12.322 24.924
*N Reciever/Unit1/n25:5 *C 14.575 24.924
*N Reciever/Unit1/n25:6 *C 14.588 24.938
*N Reciever/Unit1/n25:7 *C 14.588 27.799

*CAP
0 Reciever\/Unit1\/U30:Y 0.001
1 Reciever\/Unit1\/U9:A1 0.001
2 Reciever/Unit1/n25:2 0.007773651
3 Reciever/Unit1/n25:3 0.009206329
4 Reciever/Unit1/n25:4 0.09394424
5 Reciever/Unit1/n25:5 0.09394424
6 Reciever/Unit1/n25:6 0.1240517
7 Reciever/Unit1/n25:7 0.122619

*RES
0 Reciever\/Unit1\/U30:Y Reciever/Unit1/n25:7 1
1 Reciever/Unit1/n25:2 Reciever\/Unit1\/U9:A1 1
2 Reciever/Unit1/n25:3 Reciever/Unit1/n25:2 0.2325
3 Reciever/Unit1/n25:4 Reciever/Unit1/n25:3 0.5
4 Reciever/Unit1/n25:6 Reciever/Unit1/n25:5 0.5
5 Reciever/Unit1/n25:5 Reciever/Unit1/n25:4 4.023214
6 Reciever/Unit1/n25:7 Reciever/Unit1/n25:6 5.108929

*END

*D_NET Reciever/Unit1/n26 0.9016714 //LENGTH 9.341 LUMPCC 0 DR

*CONN
*I Reciever\/Unit1\/U34:Y O *L 0 *C 13.676 29.332
*I Reciever\/Unit1\/U30:A1 I *L 0.545591 *C 14.436 27.660
*I Reciever\/Unit1\/U32:A1 I *L 0.545591 *C 15.348 27.660
*I Reciever\/Unit1\/U8:A2 I *L 1.005399 *C 16.868 31.308
*N Reciever/Unit1/n26:4 *C 16.868 31.295
*N Reciever/Unit1/n26:5 *C 16.868 29.194
*N Reciever/Unit1/n26:6 *C 16.855 29.180
*N Reciever/Unit1/n26:7 *C 15.362 29.180
*N Reciever/Unit1/n26:8 *C 15.348 29.167
*N Reciever/Unit1/n26:9 *C 15.348 27.674
*N Reciever/Unit1/n26:10 *C 15.335 27.660
*N Reciever/Unit1/n26:11 *C 14.436 27.528
*N Reciever/Unit1/n26:12 *C 14.436 27.648
*N Reciever/Unit1/n26:13 *C 14.436 27.660
*N Reciever/Unit1/n26:14 *C 13.841 27.660
*N Reciever/Unit1/n26:15 *C 13.828 27.674
*N Reciever/Unit1/n26:16 *C 13.828 29.180
*N Reciever/Unit1/n26:17 *C 13.676 29.180
*N Reciever/Unit1/n26:18 *C 13.676 29.319

*CAP
0 Reciever\/Unit1\/U34:Y 0.001
1 Reciever\/Unit1\/U30:A1 0.001
2 Reciever\/Unit1\/U32:A1 0.001
3 Reciever\/Unit1\/U8:A2 0.001
4 Reciever/Unit1/n26:4 0.1098786
5 Reciever/Unit1/n26:5 0.1113113
6 Reciever/Unit1/n26:6 0.07241222
7 Reciever/Unit1/n26:7 0.07241222
8 Reciever/Unit1/n26:8 0.1020586
9 Reciever/Unit1/n26:9 0.09627685
10 Reciever/Unit1/n26:10 0.0293144
11 Reciever/Unit1/n26:11 0.01417741
12 Reciever/Unit1/n26:12 0.006023447
13 Reciever/Unit1/n26:13 0.05317425
14 Reciever/Unit1/n26:14 0.02148764
15 Reciever/Unit1/n26:15 0.08486377
16 Reciever/Unit1/n26:16 0.09644301
17 Reciever/Unit1/n26:17 0.02042485
18 Reciever/Unit1/n26:18 0.007412921

*RES
0 Reciever\/Unit1\/U34:Y Reciever/Unit1/n26:18 1
1 Reciever/Unit1/n26:8 Reciever/Unit1/n26:7 0.5
2 Reciever/Unit1/n26:7 Reciever/Unit1/n26:6 2.666071
3 Reciever/Unit1/n26:5 Reciever/Unit1/n26:4 3.751786
4 Reciever/Unit1/n26:6 Reciever/Unit1/n26:5 0.5
5 Reciever/Unit1/n26:4 Reciever\/Unit1\/U8:A2 1
6 Reciever/Unit1/n26:9 Reciever\/Unit1\/U32:A1 1
7 Reciever/Unit1/n26:9 Reciever/Unit1/n26:8 2.666071
8 Reciever/Unit1/n26:10 Reciever/Unit1/n26:9 0.5
9 Reciever/Unit1/n26:12 Reciever\/Unit1\/U30:A1 1
10 Reciever/Unit1/n26:12 Reciever/Unit1/n26:11 0.1991667
11 Reciever/Unit1/n26:13 Reciever/Unit1/n26:12 0.5
12 Reciever/Unit1/n26:13 Reciever/Unit1/n26:10 1.604465
13 Reciever/Unit1/n26:15 Reciever/Unit1/n26:14 0.5
14 Reciever/Unit1/n26:14 Reciever/Unit1/n26:13 1.061607
15 Reciever/Unit1/n26:18 Reciever/Unit1/n26:17 0.2473214
16 Reciever/Unit1/n26:17 Reciever/Unit1/n26:16 0.2714286
17 Reciever/Unit1/n26:16 Reciever/Unit1/n26:15 2.690179

*END

*D_NET Reciever/Unit1/n27 0.2100498 //LENGTH 2.705 LUMPCC 0 DR

*CONN
*I Reciever\/Unit1\/U31:Y O *L 0 *C 9.841 31.308
*I Reciever\/Unit1\/U7:A1 I *L 1.174364 *C 7.900 31.460
*N Reciever/Unit1/n27:2 *C 9.876 31.126
*N Reciever/Unit1/n27:3 *C 7.900 31.448
*N Reciever/Unit1/n27:4 *C 7.900 31.308
*N Reciever/Unit1/n27:5 *C 7.913 31.308
*N Reciever/Unit1/n27:6 *C 9.863 31.308
*N Reciever/Unit1/n27:7 *C 9.876 31.296
*N Reciever/Unit1/n27:8 *C 9.876 31.308

*CAP
0 Reciever\/Unit1\/U31:Y 0.008420803
1 Reciever\/Unit1\/U7:A1 0.001
2 Reciever/Unit1/n27:2 0.01344878
3 Reciever/Unit1/n27:3 0.008032028
4 Reciever/Unit1/n27:4 0.009464705
5 Reciever/Unit1/n27:5 0.07716847
6 Reciever/Unit1/n27:6 0.07716847
7 Reciever/Unit1/n27:7 0.009001164
8 Reciever/Unit1/n27:8 0.006345404

*RES
0 Reciever\/Unit1\/U31:Y Reciever/Unit1/n27:8 0.09166668
1 Reciever/Unit1/n27:3 Reciever\/Unit1\/U7:A1 1
2 Reciever/Unit1/n27:4 Reciever/Unit1/n27:3 0.2325
3 Reciever/Unit1/n27:5 Reciever/Unit1/n27:4 0.5
4 Reciever/Unit1/n27:7 Reciever/Unit1/n27:6 0.5
5 Reciever/Unit1/n27:7 Reciever/Unit1/n27:2 0.2825
6 Reciever/Unit1/n27:6 Reciever/Unit1/n27:5 3.480357
7 Reciever/Unit1/n27:8 Reciever/Unit1/n27:7 1

*END

*D_NET Reciever/Unit1/n28 0.1051173 //LENGTH 1.326 LUMPCC 0 DR

*CONN
*I Reciever\/Unit1\/U32:Y O *L 0 *C 15.196 27.204
*I Reciever\/Unit1\/U6:A1 I *L 1.174364 *C 15.196 25.988
*N Reciever/Unit1/n28:2 *C 15.196 26.002
*N Reciever/Unit1/n28:3 *C 15.196 27.191

*CAP
0 Reciever\/Unit1\/U32:Y 0.001
1 Reciever\/Unit1\/U6:A1 0.001
2 Reciever/Unit1/n28:2 0.05114358
3 Reciever/Unit1/n28:3 0.05197374

*RES
0 Reciever\/Unit1\/U32:Y Reciever/Unit1/n28:3 1
1 Reciever/Unit1/n28:2 Reciever\/Unit1\/U6:A1 1
2 Reciever/Unit1/n28:3 Reciever/Unit1/n28:2 2.123214

*END

*D_NET Reciever/Unit1/n2 0.2899227 //LENGTH 3.283 LUMPCC 0 DR

*CONN
*I Reciever\/Unit1\/U11:Y O *L 0 *C 15.956 29.940
*I Reciever\/Unit1\/U36:A2 I *L 0.46235 *C 15.044 29.484
*I Reciever\/Unit1\/U37:A2 I *L 0.46235 *C 14.436 29.484
*N Reciever/Unit1/n2:3 *C 14.436 29.485
*N Reciever/Unit1/n2:4 *C 14.436 30.079
*N Reciever/Unit1/n2:5 *C 14.450 30.092
*N Reciever/Unit1/n2:6 *C 15.044 29.485
*N Reciever/Unit1/n2:7 *C 15.044 30.079
*N Reciever/Unit1/n2:8 *C 15.044 30.092
*N Reciever/Unit1/n2:9 *C 15.943 30.092
*N Reciever/Unit1/n2:10 *C 15.956 30.080
*N Reciever/Unit1/n2:11 *C 15.956 29.940

*CAP
0 Reciever\/Unit1\/U11:Y 0.001
1 Reciever\/Unit1\/U36:A2 0.001
2 Reciever\/Unit1\/U37:A2 0.001
3 Reciever/Unit1/n2:3 0.03372829
4 Reciever/Unit1/n2:4 0.03498802
5 Reciever/Unit1/n2:5 0.02551546
6 Reciever/Unit1/n2:6 0.03316913
7 Reciever/Unit1/n2:7 0.03442886
8 Reciever/Unit1/n2:8 0.06610946
9 Reciever/Unit1/n2:9 0.03822178
10 Reciever/Unit1/n2:10 0.01106732
11 Reciever/Unit1/n2:11 0.009694356

*RES
0 Reciever\/Unit1\/U11:Y Reciever/Unit1/n2:11 1
1 Reciever/Unit1/n2:10 Reciever/Unit1/n2:9 0.5
2 Reciever/Unit1/n2:9 Reciever/Unit1/n2:8 1.604464
3 Reciever/Unit1/n2:11 Reciever/Unit1/n2:10 0.2325
4 Reciever/Unit1/n2:7 Reciever/Unit1/n2:6 1.059821
5 Reciever/Unit1/n2:8 Reciever/Unit1/n2:7 0.5
6 Reciever/Unit1/n2:8 Reciever/Unit1/n2:5 1.061607
7 Reciever/Unit1/n2:6 Reciever\/Unit1\/U36:A2 1
8 Reciever/Unit1/n2:4 Reciever/Unit1/n2:3 1.059821
9 Reciever/Unit1/n2:5 Reciever/Unit1/n2:4 0.5
10 Reciever/Unit1/n2:3 Reciever\/Unit1\/U37:A2 1

*END

*D_NET Reciever/Unit1/n3 0.4691477 //LENGTH 4.760 LUMPCC 0 DR

*CONN
*I Reciever\/Unit1\/U10:Y O *L 0 *C 16.412 28.116
*I Reciever\/Unit1\/U36:A1 I *L 0.545591 *C 15.196 29.788
*I Reciever\/Unit1\/U35:A2 I *L 0.46235 *C 16.716 29.484
*N Reciever/Unit1/n3:3 *C 16.716 29.483
*N Reciever/Unit1/n3:4 *C 15.196 29.787
*N Reciever/Unit1/n3:5 *C 15.196 28.585
*N Reciever/Unit1/n3:6 *C 15.210 28.572
*N Reciever/Unit1/n3:7 *C 16.703 28.572
*N Reciever/Unit1/n3:8 *C 16.716 28.585
*N Reciever/Unit1/n3:9 *C 16.412 28.572
*N Reciever/Unit1/n3:10 *C 16.412 28.130

*CAP
0 Reciever\/Unit1\/U10:Y 0.001
1 Reciever\/Unit1\/U36:A1 0.001
2 Reciever\/Unit1\/U35:A2 0.001
3 Reciever/Unit1/n3:3 0.04494354
4 Reciever/Unit1/n3:4 0.07721612
5 Reciever/Unit1/n3:5 0.0786488
6 Reciever/Unit1/n3:6 0.07041776
7 Reciever/Unit1/n3:7 0.07041776
8 Reciever/Unit1/n3:8 0.06139752
9 Reciever/Unit1/n3:9 0.04105267
10 Reciever/Unit1/n3:10 0.02205354

*RES
0 Reciever\/Unit1\/U10:Y Reciever/Unit1/n3:10 1
1 Reciever/Unit1/n3:3 Reciever\/Unit1\/U35:A2 1
2 Reciever/Unit1/n3:10 Reciever/Unit1/n3:9 0.7901786
3 Reciever/Unit1/n3:8 Reciever/Unit1/n3:7 0.5
4 Reciever/Unit1/n3:8 Reciever/Unit1/n3:3 1.602679
5 Reciever/Unit1/n3:7 Reciever/Unit1/n3:6 2.666072
6 Reciever/Unit1/n3:5 Reciever/Unit1/n3:4 2.145536
7 Reciever/Unit1/n3:6 Reciever/Unit1/n3:5 0.5
8 Reciever/Unit1/n3:4 Reciever\/Unit1\/U36:A1 1
9 Reciever/Unit1/n3:9 Reciever/Unit1/n3:8 0.5428572

*END

*D_NET Reciever/Unit1/clock_ticks[9] 1.020699 //LENGTH 12.855 LUMPCC 0 DR

*CONN
*I Reciever\/Unit1\/clock_ticks_reg[9]:Q O *L 0 *C 18.236 35.108
*I Reciever\/Unit1\/ctmTdsLR_2_287:A I *L 0.577904 *C 14.436 32.828
*I Reciever\/Unit1\/ctmTdsLR_3_288:A4 I *L 0.480114 *C 13.927 31.308
*I Reciever\/Unit1\/add_62\/U2:A2 I *L 1.005399 *C 10.788 34.652
*N Reciever/Unit1/clock_ticks[9]:4 *C 10.788 34.470
*N Reciever/Unit1/clock_ticks[9]:5 *C 10.788 34.639
*N Reciever/Unit1/clock_ticks[9]:6 *C 10.802 34.652
*N Reciever/Unit1/clock_ticks[9]:7 *C 13.980 31.308
*N Reciever/Unit1/clock_ticks[9]:8 *C 13.980 31.322
*N Reciever/Unit1/clock_ticks[9]:9 *C 14.436 32.646
*N Reciever/Unit1/clock_ticks[9]:10 *C 14.436 32.816
*N Reciever/Unit1/clock_ticks[9]:11 *C 14.423 32.828
*N Reciever/Unit1/clock_ticks[9]:12 *C 13.994 32.828
*N Reciever/Unit1/clock_ticks[9]:13 *C 13.980 32.828
*N Reciever/Unit1/clock_ticks[9]:14 *C 13.980 34.639
*N Reciever/Unit1/clock_ticks[9]:15 *C 13.980 34.652
*N Reciever/Unit1/clock_ticks[9]:16 *C 17.020 34.652
*N Reciever/Unit1/clock_ticks[9]:17 *C 17.020 34.956
*N Reciever/Unit1/clock_ticks[9]:18 *C 18.223 34.956
*N Reciever/Unit1/clock_ticks[9]:19 *C 18.236 34.956
*N Reciever/Unit1/clock_ticks[9]:20 *C 18.236 35.096

*CAP
0 Reciever\/Unit1\/clock_ticks_reg[9]:Q 0.001
1 Reciever\/Unit1\/ctmTdsLR_2_287:A 0.001
2 Reciever\/Unit1\/ctmTdsLR_3_288:A4 0.01113498
3 Reciever\/Unit1\/add_62\/U2:A2 0.001
4 Reciever/Unit1/clock_ticks[9]:4 0.01405866
5 Reciever/Unit1/clock_ticks[9]:5 0.007881547
6 Reciever/Unit1/clock_ticks[9]:6 0.1147452
7 Reciever/Unit1/clock_ticks[9]:7 0.009059584
8 Reciever/Unit1/clock_ticks[9]:8 0.08728582
9 Reciever/Unit1/clock_ticks[9]:9 0.01188389
10 Reciever/Unit1/clock_ticks[9]:10 0.005706771
11 Reciever/Unit1/clock_ticks[9]:11 0.01616953
12 Reciever/Unit1/clock_ticks[9]:12 0.01616953
13 Reciever/Unit1/clock_ticks[9]:13 0.1669016
14 Reciever/Unit1/clock_ticks[9]:14 0.07754037
15 Reciever/Unit1/clock_ticks[9]:15 0.2231355
16 Reciever/Unit1/clock_ticks[9]:16 0.1201466
17 Reciever/Unit1/clock_ticks[9]:17 0.06699049
18 Reciever/Unit1/clock_ticks[9]:18 0.05286196
19 Reciever/Unit1/clock_ticks[9]:19 0.008699877
20 Reciever/Unit1/clock_ticks[9]:20 0.007326919

*RES
0 Reciever\/Unit1\/clock_ticks_reg[9]:Q Reciever/Unit1/clock_ticks[9]:20 1
1 Reciever/Unit1/clock_ticks[9]:19 Reciever/Unit1/clock_ticks[9]:18 0.5
2 Reciever/Unit1/clock_ticks[9]:18 Reciever/Unit1/clock_ticks[9]:17 2.147322
3 Reciever/Unit1/clock_ticks[9]:20 Reciever/Unit1/clock_ticks[9]:19 0.2325
4 Reciever/Unit1/clock_ticks[9]:14 Reciever/Unit1/clock_ticks[9]:13 3.233036
5 Reciever/Unit1/clock_ticks[9]:15 Reciever/Unit1/clock_ticks[9]:14 0.5
6 Reciever/Unit1/clock_ticks[9]:15 Reciever/Unit1/clock_ticks[9]:6 5.675893
7 Reciever/Unit1/clock_ticks[9]:13 Reciever/Unit1/clock_ticks[9]:12 0.5
8 Reciever/Unit1/clock_ticks[9]:13 Reciever/Unit1/clock_ticks[9]:8 2.690179
9 Reciever/Unit1/clock_ticks[9]:12 Reciever/Unit1/clock_ticks[9]:11 0.7660715
10 Reciever/Unit1/clock_ticks[9]:10 Reciever\/Unit1\/ctmTdsLR_2_287:A 1
11 Reciever/Unit1/clock_ticks[9]:10 Reciever/Unit1/clock_ticks[9]:9 0.2825
12 Reciever/Unit1/clock_ticks[9]:11 Reciever/Unit1/clock_ticks[9]:10 0.5
13 Reciever/Unit1/clock_ticks[9]:7 Reciever\/Unit1\/ctmTdsLR_3_288:A4 0.09166668
14 Reciever/Unit1/clock_ticks[9]:8 Reciever/Unit1/clock_ticks[9]:7 1
15 Reciever/Unit1/clock_ticks[9]:5 Reciever\/Unit1\/add_62\/U2:A2 1
16 Reciever/Unit1/clock_ticks[9]:5 Reciever/Unit1/clock_ticks[9]:4 0.2825
17 Reciever/Unit1/clock_ticks[9]:6 Reciever/Unit1/clock_ticks[9]:5 0.5
18 Reciever/Unit1/clock_ticks[9]:16 Reciever/Unit1/clock_ticks[9]:15 5.428572
19 Reciever/Unit1/clock_ticks[9]:17 Reciever/Unit1/clock_ticks[9]:16 0.5428572

*END

*D_NET Reciever/Unit1/clock_ticks[8] 0.7070245 //LENGTH 8.527 LUMPCC 0 DR

*CONN
*I Reciever\/Unit1\/clock_ticks_reg[8]:Q O *L 0 *C 6.380 36.476
*I Reciever\/Unit1\/ctmTdsLR_4_289:A2 I *L 1.005399 *C 8.356 32.828
*I Reciever\/Unit1\/add_62\/U1_1_8:A0 I *L 0.988659 *C 9.420 36.172
*N Reciever/Unit1/clock_ticks[8]:3 *C 9.420 36.186
*N Reciever/Unit1/clock_ticks[8]:4 *C 9.420 36.767
*N Reciever/Unit1/clock_ticks[8]:5 *C 9.407 36.780
*N Reciever/Unit1/clock_ticks[8]:6 *C 8.355 32.828
*N Reciever/Unit1/clock_ticks[8]:7 *C 8.204 32.828
*N Reciever/Unit1/clock_ticks[8]:8 *C 8.204 36.767
*N Reciever/Unit1/clock_ticks[8]:9 *C 8.204 36.780
*N Reciever/Unit1/clock_ticks[8]:10 *C 6.394 36.780
*N Reciever/Unit1/clock_ticks[8]:11 *C 6.380 36.767
*N Reciever/Unit1/clock_ticks[8]:12 *C 6.380 36.489

*CAP
0 Reciever\/Unit1\/clock_ticks_reg[8]:Q 0.001
1 Reciever\/Unit1\/ctmTdsLR_4_289:A2 0.001
2 Reciever\/Unit1\/add_62\/U1_1_8:A0 0.001
3 Reciever/Unit1/clock_ticks[8]:3 0.02777056
4 Reciever/Unit1/clock_ticks[8]:4 0.02920324
5 Reciever/Unit1/clock_ticks[8]:5 0.04670977
6 Reciever/Unit1/clock_ticks[8]:6 0.004454365
7 Reciever/Unit1/clock_ticks[8]:7 0.1937187
8 Reciever/Unit1/clock_ticks[8]:8 0.1830872
9 Reciever/Unit1/clock_ticks[8]:9 0.1199382
10 Reciever/Unit1/clock_ticks[8]:10 0.07085619
11 Reciever/Unit1/clock_ticks[8]:11 0.01485942
12 Reciever/Unit1/clock_ticks[8]:12 0.01342675

*RES
0 Reciever\/Unit1\/clock_ticks_reg[8]:Q Reciever/Unit1/clock_ticks[8]:12 1
1 Reciever/Unit1/clock_ticks[8]:4 Reciever/Unit1/clock_ticks[8]:3 1.0375
2 Reciever/Unit1/clock_ticks[8]:5 Reciever/Unit1/clock_ticks[8]:4 0.5
3 Reciever/Unit1/clock_ticks[8]:3 Reciever\/Unit1\/add_62\/U1_1_8:A0 1
4 Reciever/Unit1/clock_ticks[8]:8 Reciever/Unit1/clock_ticks[8]:7 7.033036
5 Reciever/Unit1/clock_ticks[8]:9 Reciever/Unit1/clock_ticks[8]:8 0.5
6 Reciever/Unit1/clock_ticks[8]:9 Reciever/Unit1/clock_ticks[8]:5 2.147322
7 Reciever/Unit1/clock_ticks[8]:6 Reciever\/Unit1\/ctmTdsLR_4_289:A2 1
8 Reciever/Unit1/clock_ticks[8]:11 Reciever/Unit1/clock_ticks[8]:10 0.5
9 Reciever/Unit1/clock_ticks[8]:10 Reciever/Unit1/clock_ticks[8]:9 3.233036
10 Reciever/Unit1/clock_ticks[8]:12 Reciever/Unit1/clock_ticks[8]:11 0.4946429
11 Reciever/Unit1/clock_ticks[8]:7 Reciever/Unit1/clock_ticks[8]:6 0.2696429

*END

*D_NET Reciever/Unit1/clock_ticks[7] 1.039031 //LENGTH 13.208 LUMPCC 0 DR

*CONN
*I Reciever\/Unit1\/clock_ticks_reg[7]:Q O *L 0 *C 17.780 35.716
*I Reciever\/Unit1\/U8:A1 I *L 0.954271 *C 16.564 31.460
*I Reciever\/Unit1\/add_62\/U1_1_7:A0 I *L 0.988659 *C 10.180 36.172
*N Reciever/Unit1/clock_ticks[7]:3 *C 10.180 35.990
*N Reciever/Unit1/clock_ticks[7]:4 *C 10.180 36.160
*N Reciever/Unit1/clock_ticks[7]:5 *C 10.194 36.172
*N Reciever/Unit1/clock_ticks[7]:6 *C 16.564 36.172
*N Reciever/Unit1/clock_ticks[7]:7 *C 16.564 31.474
*N Reciever/Unit1/clock_ticks[7]:8 *C 16.564 35.855
*N Reciever/Unit1/clock_ticks[7]:9 *C 16.564 35.868
*N Reciever/Unit1/clock_ticks[7]:10 *C 17.006 35.868
*N Reciever/Unit1/clock_ticks[7]:11 *C 17.020 35.855
*N Reciever/Unit1/clock_ticks[7]:12 *C 17.020 35.716
*N Reciever/Unit1/clock_ticks[7]:13 *C 17.779 35.716

*CAP
0 Reciever\/Unit1\/clock_ticks_reg[7]:Q 0.001
1 Reciever\/Unit1\/U8:A1 0.001
2 Reciever\/Unit1\/add_62\/U1_1_7:A0 0.001
3 Reciever/Unit1/clock_ticks[7]:3 0.01293314
4 Reciever/Unit1/clock_ticks[7]:4 0.006756025
5 Reciever/Unit1/clock_ticks[7]:5 0.2590828
6 Reciever/Unit1/clock_ticks[7]:6 0.2729293
7 Reciever/Unit1/clock_ticks[7]:7 0.1776325
8 Reciever/Unit1/clock_ticks[7]:8 0.1790652
9 Reciever/Unit1/clock_ticks[7]:9 0.0304655
10 Reciever/Unit1/clock_ticks[7]:10 0.01899127
11 Reciever/Unit1/clock_ticks[7]:11 0.007262779
12 Reciever/Unit1/clock_ticks[7]:12 0.04214633
13 Reciever/Unit1/clock_ticks[7]:13 0.02876615

*RES
0 Reciever\/Unit1\/clock_ticks_reg[7]:Q Reciever/Unit1/clock_ticks[7]:13 1
1 Reciever/Unit1/clock_ticks[7]:11 Reciever/Unit1/clock_ticks[7]:10 0.5
2 Reciever/Unit1/clock_ticks[7]:10 Reciever/Unit1/clock_ticks[7]:9 0.7901787
3 Reciever/Unit1/clock_ticks[7]:13 Reciever/Unit1/clock_ticks[7]:12 1.355357
4 Reciever/Unit1/clock_ticks[7]:8 Reciever/Unit1/clock_ticks[7]:7 7.823215
5 Reciever/Unit1/clock_ticks[7]:9 Reciever/Unit1/clock_ticks[7]:8 0.5
6 Reciever/Unit1/clock_ticks[7]:9 Reciever/Unit1/clock_ticks[7]:6 0.5428572
7 Reciever/Unit1/clock_ticks[7]:7 Reciever\/Unit1\/U8:A1 1
8 Reciever/Unit1/clock_ticks[7]:4 Reciever\/Unit1\/add_62\/U1_1_7:A0 1
9 Reciever/Unit1/clock_ticks[7]:4 Reciever/Unit1/clock_ticks[7]:3 0.2825
10 Reciever/Unit1/clock_ticks[7]:5 Reciever/Unit1/clock_ticks[7]:4 0.5
11 Reciever/Unit1/clock_ticks[7]:12 Reciever/Unit1/clock_ticks[7]:11 0.2473214
12 Reciever/Unit1/clock_ticks[7]:6 Reciever/Unit1/clock_ticks[7]:5 11.37589

*END

*D_NET Reciever/Unit1/clock_ticks[6] 0.3842089 //LENGTH 4.993 LUMPCC 0 DR

*CONN
*I Reciever\/Unit1\/clock_ticks_reg[6]:Q O *L 0 *C 6.258 32.980
*I Reciever\/Unit1\/U7:A2 I *L 0.973269 *C 7.596 31.308
*I Reciever\/Unit1\/add_62\/U1_1_6:A0 I *L 0.988659 *C 7.596 34.652
*N Reciever/Unit1/clock_ticks[6]:3 *C 7.596 34.639
*N Reciever/Unit1/clock_ticks[6]:4 *C 7.596 31.322
*N Reciever/Unit1/clock_ticks[6]:5 *C 7.596 32.980
*N Reciever/Unit1/clock_ticks[6]:6 *C 6.229 32.980
*N Reciever/Unit1/clock_ticks[6]:7 *C 6.228 32.980

*CAP
0 Reciever\/Unit1\/clock_ticks_reg[6]:Q 0.01181629
1 Reciever\/Unit1\/U7:A2 0.001
2 Reciever\/Unit1\/add_62\/U1_1_6:A0 0.001
3 Reciever/Unit1/clock_ticks[6]:3 0.06406175
4 Reciever/Unit1/clock_ticks[6]:4 0.06291483
5 Reciever/Unit1/clock_ticks[6]:5 0.1851685
6 Reciever/Unit1/clock_ticks[6]:6 0.04850672
7 Reciever/Unit1/clock_ticks[6]:7 0.009740892

*RES
0 Reciever\/Unit1\/clock_ticks_reg[6]:Q Reciever/Unit1/clock_ticks[6]:7 0.07545456
1 Reciever/Unit1/clock_ticks[6]:3 Reciever\/Unit1\/add_62\/U1_1_6:A0 1
2 Reciever/Unit1/clock_ticks[6]:4 Reciever\/Unit1\/U7:A2 1
3 Reciever/Unit1/clock_ticks[6]:7 Reciever/Unit1/clock_ticks[6]:6 1
4 Reciever/Unit1/clock_ticks[6]:6 Reciever/Unit1/clock_ticks[6]:5 2.441072
5 Reciever/Unit1/clock_ticks[6]:5 Reciever/Unit1/clock_ticks[6]:4 2.961607
6 Reciever/Unit1/clock_ticks[6]:5 Reciever/Unit1/clock_ticks[6]:3 2.961607

*END

*D_NET Reciever/Unit1/clock_ticks[5] 0.7178659 //LENGTH 8.558 LUMPCC 0 DR

*CONN
*I Reciever\/Unit1\/clock_ticks_reg[5]:Q O *L 0 *C 6.228 31.004
*I Reciever\/Unit1\/add_62\/U1_1_5:A0 I *L 0.988659 *C 1.972 29.484
*I Reciever\/Unit1\/U12:A2 I *L 1.005399 *C 6.532 27.964
*N Reciever/Unit1/clock_ticks[5]:3 *C 6.532 27.978
*N Reciever/Unit1/clock_ticks[5]:4 *C 6.532 29.788
*N Reciever/Unit1/clock_ticks[5]:5 *C 1.972 29.498
*N Reciever/Unit1/clock_ticks[5]:6 *C 1.972 29.774
*N Reciever/Unit1/clock_ticks[5]:7 *C 1.986 29.788
*N Reciever/Unit1/clock_ticks[5]:8 *C 6.367 29.788
*N Reciever/Unit1/clock_ticks[5]:9 *C 6.380 29.788
*N Reciever/Unit1/clock_ticks[5]:10 *C 6.380 31.004
*N Reciever/Unit1/clock_ticks[5]:11 *C 6.229 31.004

*CAP
0 Reciever\/Unit1\/clock_ticks_reg[5]:Q 0.001
1 Reciever\/Unit1\/add_62\/U1_1_5:A0 0.001
2 Reciever\/Unit1\/U12:A2 0.001
3 Reciever/Unit1/clock_ticks[5]:3 0.09638801
4 Reciever/Unit1/clock_ticks[5]:4 0.1085647
5 Reciever/Unit1/clock_ticks[5]:5 0.0139954
6 Reciever/Unit1/clock_ticks[5]:6 0.01542808
7 Reciever/Unit1/clock_ticks[5]:7 0.1693982
8 Reciever/Unit1/clock_ticks[5]:8 0.1693982
9 Reciever/Unit1/clock_ticks[5]:9 0.06766267
10 Reciever/Unit1/clock_ticks[5]:10 0.06974932
11 Reciever/Unit1/clock_ticks[5]:11 0.004281291

*RES
0 Reciever\/Unit1\/clock_ticks_reg[5]:Q Reciever/Unit1/clock_ticks[5]:11 1
1 Reciever/Unit1/clock_ticks[5]:3 Reciever\/Unit1\/U12:A2 1
2 Reciever/Unit1/clock_ticks[5]:11 Reciever/Unit1/clock_ticks[5]:10 0.2696429
3 Reciever/Unit1/clock_ticks[5]:9 Reciever/Unit1/clock_ticks[5]:8 0.5
4 Reciever/Unit1/clock_ticks[5]:9 Reciever/Unit1/clock_ticks[5]:4 0.2714286
5 Reciever/Unit1/clock_ticks[5]:8 Reciever/Unit1/clock_ticks[5]:7 7.823215
6 Reciever/Unit1/clock_ticks[5]:6 Reciever/Unit1/clock_ticks[5]:5 0.4946429
7 Reciever/Unit1/clock_ticks[5]:7 Reciever/Unit1/clock_ticks[5]:6 0.5
8 Reciever/Unit1/clock_ticks[5]:5 Reciever\/Unit1\/add_62\/U1_1_5:A0 1
9 Reciever/Unit1/clock_ticks[5]:10 Reciever/Unit1/clock_ticks[5]:9 2.171429
10 Reciever/Unit1/clock_ticks[5]:4 Reciever/Unit1/clock_ticks[5]:3 3.233036

*END

*D_NET Reciever/Unit1/clock_ticks[4] 0.8471363 //LENGTH 10.564 LUMPCC 0 DR

*CONN
*I Reciever\/Unit1\/clock_ticks_reg[4]:Q O *L 0 *C 6.380 28.876
*I Reciever\/Unit1\/add_62\/U1_1_4:A0 I *L 0.988659 *C 0.604 27.964
*I Reciever\/Unit1\/U13:A2 I *L 1.005399 *C 8.964 29.484
*N Reciever/Unit1/clock_ticks[4]:3 *C 6.380 28.694
*N Reciever/Unit1/clock_ticks[4]:4 *C 8.964 29.471
*N Reciever/Unit1/clock_ticks[4]:5 *C 8.964 29.194
*N Reciever/Unit1/clock_ticks[4]:6 *C 8.950 29.180
*N Reciever/Unit1/clock_ticks[4]:7 *C 6.684 29.180
*N Reciever/Unit1/clock_ticks[4]:8 *C 6.684 28.876
*N Reciever/Unit1/clock_ticks[4]:9 *C 0.604 27.978
*N Reciever/Unit1/clock_ticks[4]:10 *C 0.604 28.863
*N Reciever/Unit1/clock_ticks[4]:11 *C 0.618 28.876
*N Reciever/Unit1/clock_ticks[4]:12 *C 6.380 28.876
*N Reciever/Unit1/clock_ticks[4]:13 *C 6.380 28.864

*CAP
0 Reciever\/Unit1\/clock_ticks_reg[4]:Q 0.001
1 Reciever\/Unit1\/add_62\/U1_1_4:A0 0.001
2 Reciever\/Unit1\/U13:A2 0.001
3 Reciever/Unit1/clock_ticks[4]:3 0.01636144
4 Reciever/Unit1/clock_ticks[4]:4 0.01671855
5 Reciever/Unit1/clock_ticks[4]:5 0.01815123
6 Reciever/Unit1/clock_ticks[4]:6 0.09788726
7 Reciever/Unit1/clock_ticks[4]:7 0.1120696
8 Reciever/Unit1/clock_ticks[4]:8 0.02598947
9 Reciever/Unit1/clock_ticks[4]:9 0.05813545
10 Reciever/Unit1/clock_ticks[4]:10 0.05956813
11 Reciever/Unit1/clock_ticks[4]:11 0.2065477
12 Reciever/Unit1/clock_ticks[4]:12 0.220727
13 Reciever/Unit1/clock_ticks[4]:13 0.01198045

*RES
0 Reciever\/Unit1\/clock_ticks_reg[4]:Q Reciever/Unit1/clock_ticks[4]:13 1
1 Reciever/Unit1/clock_ticks[4]:5 Reciever/Unit1/clock_ticks[4]:4 0.4946429
2 Reciever/Unit1/clock_ticks[4]:6 Reciever/Unit1/clock_ticks[4]:5 0.5
3 Reciever/Unit1/clock_ticks[4]:4 Reciever\/Unit1\/U13:A2 1
4 Reciever/Unit1/clock_ticks[4]:13 Reciever/Unit1/clock_ticks[4]:12 0.5
5 Reciever/Unit1/clock_ticks[4]:13 Reciever/Unit1/clock_ticks[4]:3 0.2825
6 Reciever/Unit1/clock_ticks[4]:12 Reciever/Unit1/clock_ticks[4]:11 10.29018
7 Reciever/Unit1/clock_ticks[4]:12 Reciever/Unit1/clock_ticks[4]:8 0.5428572
8 Reciever/Unit1/clock_ticks[4]:10 Reciever/Unit1/clock_ticks[4]:9 1.580357
9 Reciever/Unit1/clock_ticks[4]:11 Reciever/Unit1/clock_ticks[4]:10 0.5
10 Reciever/Unit1/clock_ticks[4]:9 Reciever\/Unit1\/add_62\/U1_1_4:A0 1
11 Reciever/Unit1/clock_ticks[4]:8 Reciever/Unit1/clock_ticks[4]:7 0.5428572
12 Reciever/Unit1/clock_ticks[4]:7 Reciever/Unit1/clock_ticks[4]:6 4.047322

*END

*D_NET Reciever/Unit1/clock_ticks[3] 0.8807368 //LENGTH 12.222 LUMPCC 0 DR

*CONN
*I Reciever\/Unit1\/clock_ticks_reg[3]:Q O *L 0 *C 6.562 26.292
*I Reciever\/Unit1\/add_62\/U1_1_3:A0 I *L 0.988659 *C 0.756 26.140
*I Reciever\/Unit1\/U14:A2 I *L 1.005399 *C 12.004 26.140
*N Reciever/Unit1/clock_ticks[3]:3 *C 12.004 25.958
*N Reciever/Unit1/clock_ticks[3]:4 *C 12.004 26.128
*N Reciever/Unit1/clock_ticks[3]:5 *C 11.991 26.140
*N Reciever/Unit1/clock_ticks[3]:6 *C 0.756 25.958
*N Reciever/Unit1/clock_ticks[3]:7 *C 0.756 26.128
*N Reciever/Unit1/clock_ticks[3]:8 *C 0.770 26.140
*N Reciever/Unit1/clock_ticks[3]:9 *C 6.532 26.140
*N Reciever/Unit1/clock_ticks[3]:10 *C 6.532 26.140
*N Reciever/Unit1/clock_ticks[3]:11 *C 6.532 26.280
*N Reciever/Unit1/clock_ticks[3]:12 *C 6.532 26.292

*CAP
0 Reciever\/Unit1\/clock_ticks_reg[3]:Q 0.01167286
1 Reciever\/Unit1\/add_62\/U1_1_3:A0 0.001
2 Reciever\/Unit1\/U14:A2 0.001
3 Reciever/Unit1/clock_ticks[3]:3 0.01331797
4 Reciever/Unit1/clock_ticks[3]:4 0.007140854
5 Reciever/Unit1/clock_ticks[3]:5 0.2006184
6 Reciever/Unit1/clock_ticks[3]:6 0.01400778
7 Reciever/Unit1/clock_ticks[3]:7 0.007830662
8 Reciever/Unit1/clock_ticks[3]:8 0.1969335
9 Reciever/Unit1/clock_ticks[3]:9 0.3999241
10 Reciever/Unit1/clock_ticks[3]:10 0.008698202
11 Reciever/Unit1/clock_ticks[3]:11 0.008995023
12 Reciever/Unit1/clock_ticks[3]:12 0.009597461

*RES
0 Reciever\/Unit1\/clock_ticks_reg[3]:Q Reciever/Unit1/clock_ticks[3]:12 0.07545456
1 Reciever/Unit1/clock_ticks[3]:4 Reciever\/Unit1\/U14:A2 1
2 Reciever/Unit1/clock_ticks[3]:4 Reciever/Unit1/clock_ticks[3]:3 0.2825
3 Reciever/Unit1/clock_ticks[3]:5 Reciever/Unit1/clock_ticks[3]:4 0.5
4 Reciever/Unit1/clock_ticks[3]:10 Reciever/Unit1/clock_ticks[3]:9 0.5
5 Reciever/Unit1/clock_ticks[3]:9 Reciever/Unit1/clock_ticks[3]:8 10.29018
6 Reciever/Unit1/clock_ticks[3]:9 Reciever/Unit1/clock_ticks[3]:5 9.747323
7 Reciever/Unit1/clock_ticks[3]:12 Reciever/Unit1/clock_ticks[3]:11 1
8 Reciever/Unit1/clock_ticks[3]:11 Reciever/Unit1/clock_ticks[3]:10 0.2325
9 Reciever/Unit1/clock_ticks[3]:7 Reciever\/Unit1\/add_62\/U1_1_3:A0 1
10 Reciever/Unit1/clock_ticks[3]:7 Reciever/Unit1/clock_ticks[3]:6 0.2825
11 Reciever/Unit1/clock_ticks[3]:8 Reciever/Unit1/clock_ticks[3]:7 0.5

*END

*D_NET Reciever/Unit1/clock_ticks[2] 0.7478098 //LENGTH 8.679 LUMPCC 0 DR

*CONN
*I Reciever\/Unit1\/clock_ticks_reg[2]:Q O *L 0 *C 6.836 23.100
*I Reciever\/Unit1\/add_62\/U1_1_2:A0 I *L 0.988659 *C 0.756 22.796
*I Reciever\/Unit1\/U5:A2 I *L 1.005399 *C 6.684 24.620
*N Reciever/Unit1/clock_ticks[2]:3 *C 6.684 24.607
*N Reciever/Unit1/clock_ticks[2]:4 *C 0.756 22.809
*N Reciever/Unit1/clock_ticks[2]:5 *C 0.756 23.390
*N Reciever/Unit1/clock_ticks[2]:6 *C 0.770 23.404
*N Reciever/Unit1/clock_ticks[2]:7 *C 6.671 23.404
*N Reciever/Unit1/clock_ticks[2]:8 *C 6.684 23.404
*N Reciever/Unit1/clock_ticks[2]:9 *C 6.836 23.404
*N Reciever/Unit1/clock_ticks[2]:10 *C 6.836 23.114

*CAP
0 Reciever\/Unit1\/clock_ticks_reg[2]:Q 0.001
1 Reciever\/Unit1\/add_62\/U1_1_2:A0 0.001
2 Reciever\/Unit1\/U5:A2 0.001
3 Reciever/Unit1/clock_ticks[2]:3 0.05542005
4 Reciever/Unit1/clock_ticks[2]:4 0.02988822
5 Reciever/Unit1/clock_ticks[2]:5 0.0313209
6 Reciever/Unit1/clock_ticks[2]:6 0.2586026
7 Reciever/Unit1/clock_ticks[2]:7 0.2586026
8 Reciever/Unit1/clock_ticks[2]:8 0.06520995
9 Reciever/Unit1/clock_ticks[2]:9 0.02896387
10 Reciever/Unit1/clock_ticks[2]:10 0.01680175

*RES
0 Reciever\/Unit1\/clock_ticks_reg[2]:Q Reciever/Unit1/clock_ticks[2]:10 1
1 Reciever/Unit1/clock_ticks[2]:10 Reciever/Unit1/clock_ticks[2]:9 0.5187501
2 Reciever/Unit1/clock_ticks[2]:3 Reciever\/Unit1\/U5:A2 1
3 Reciever/Unit1/clock_ticks[2]:8 Reciever/Unit1/clock_ticks[2]:7 0.5
4 Reciever/Unit1/clock_ticks[2]:8 Reciever/Unit1/clock_ticks[2]:3 2.147322
5 Reciever/Unit1/clock_ticks[2]:7 Reciever/Unit1/clock_ticks[2]:6 10.5375
6 Reciever/Unit1/clock_ticks[2]:5 Reciever/Unit1/clock_ticks[2]:4 1.0375
7 Reciever/Unit1/clock_ticks[2]:6 Reciever/Unit1/clock_ticks[2]:5 0.5
8 Reciever/Unit1/clock_ticks[2]:4 Reciever\/Unit1\/add_62\/U1_1_2:A0 1
9 Reciever/Unit1/clock_ticks[2]:9 Reciever/Unit1/clock_ticks[2]:8 0.2714286

*END

*D_NET Reciever/Unit1/clock_ticks[1] 0.3366863 //LENGTH 4.354 LUMPCC 0 DR

*CONN
*I Reciever\/Unit1\/clock_ticks_reg[1]:Q O *L 0 *C 11.548 23.100
*I Reciever\/Unit1\/U9:A2 I *L 0.973269 *C 12.004 24.620
*I Reciever\/Unit1\/add_62\/U1_1_1:A0 I *L 0.988659 *C 10.636 24.620
*N Reciever/Unit1/clock_ticks[1]:3 *C 10.636 24.607
*N Reciever/Unit1/clock_ticks[1]:4 *C 10.636 24.329
*N Reciever/Unit1/clock_ticks[1]:5 *C 10.649 24.316
*N Reciever/Unit1/clock_ticks[1]:6 *C 11.991 24.316
*N Reciever/Unit1/clock_ticks[1]:7 *C 12.004 24.329
*N Reciever/Unit1/clock_ticks[1]:8 *C 12.004 24.607
*N Reciever/Unit1/clock_ticks[1]:9 *C 11.548 24.620
*N Reciever/Unit1/clock_ticks[1]:10 *C 11.548 23.114

*CAP
0 Reciever\/Unit1\/clock_ticks_reg[1]:Q 0.001
1 Reciever\/Unit1\/U9:A2 0.001
2 Reciever\/Unit1\/add_62\/U1_1_1:A0 0.001
3 Reciever/Unit1/clock_ticks[1]:3 0.01286267
4 Reciever/Unit1/clock_ticks[1]:4 0.01429535
5 Reciever/Unit1/clock_ticks[1]:5 0.05667648
6 Reciever/Unit1/clock_ticks[1]:6 0.05667648
7 Reciever/Unit1/clock_ticks[1]:7 0.01270987
8 Reciever/Unit1/clock_ticks[1]:8 0.0324158
9 Reciever/Unit1/clock_ticks[1]:9 0.08649655
10 Reciever/Unit1/clock_ticks[1]:10 0.06155305

*RES
0 Reciever\/Unit1\/clock_ticks_reg[1]:Q Reciever/Unit1/clock_ticks[1]:10 1
1 Reciever/Unit1/clock_ticks[1]:8 Reciever\/Unit1\/U9:A2 1
2 Reciever/Unit1/clock_ticks[1]:8 Reciever/Unit1/clock_ticks[1]:7 0.4946429
3 Reciever/Unit1/clock_ticks[1]:10 Reciever/Unit1/clock_ticks[1]:9 2.690179
4 Reciever/Unit1/clock_ticks[1]:7 Reciever/Unit1/clock_ticks[1]:6 0.5
5 Reciever/Unit1/clock_ticks[1]:6 Reciever/Unit1/clock_ticks[1]:5 2.394643
6 Reciever/Unit1/clock_ticks[1]:4 Reciever/Unit1/clock_ticks[1]:3 0.4946429
7 Reciever/Unit1/clock_ticks[1]:5 Reciever/Unit1/clock_ticks[1]:4 0.5
8 Reciever/Unit1/clock_ticks[1]:3 Reciever\/Unit1\/add_62\/U1_1_1:A0 1
9 Reciever/Unit1/clock_ticks[1]:9 Reciever/Unit1/clock_ticks[1]:8 0.8142858

*END

*D_NET Reciever/Unit1/clock_ticks[0] 0.8350666 //LENGTH 10.719 LUMPCC 0 DR

*CONN
*I Reciever\/Unit1\/clock_ticks_reg[0]:Q O *L 0 *C 17.020 23.100
*I Reciever\/Unit1\/add_62\/U1:A I *L 0.577904 *C 16.564 24.620
*I Reciever\/Unit1\/U6:A2 I *L 0.973269 *C 15.500 26.140
*I Reciever\/Unit1\/add_62\/U1_1_1:B0 I *L 0.984521 *C 10.180 24.772
*N Reciever/Unit1/clock_ticks[0]:4 *C 10.180 24.760
*N Reciever/Unit1/clock_ticks[0]:5 *C 10.180 24.620
*N Reciever/Unit1/clock_ticks[0]:6 *C 10.194 24.620
*N Reciever/Unit1/clock_ticks[0]:7 *C 15.500 26.127
*N Reciever/Unit1/clock_ticks[0]:8 *C 15.500 24.634
*N Reciever/Unit1/clock_ticks[0]:9 *C 15.500 24.620
*N Reciever/Unit1/clock_ticks[0]:10 *C 16.564 24.438
*N Reciever/Unit1/clock_ticks[0]:11 *C 16.564 24.608
*N Reciever/Unit1/clock_ticks[0]:12 *C 16.564 24.620
*N Reciever/Unit1/clock_ticks[0]:13 *C 17.006 24.620
*N Reciever/Unit1/clock_ticks[0]:14 *C 17.020 24.607
*N Reciever/Unit1/clock_ticks[0]:15 *C 17.020 23.114

*CAP
0 Reciever\/Unit1\/clock_ticks_reg[0]:Q 0.001
1 Reciever\/Unit1\/add_62\/U1:A 0.001
2 Reciever\/Unit1\/U6:A2 0.001
3 Reciever\/Unit1\/add_62\/U1_1_1:B0 0.001
4 Reciever/Unit1/clock_ticks[0]:4 0.007157876
5 Reciever/Unit1/clock_ticks[0]:5 0.008590554
6 Reciever/Unit1/clock_ticks[0]:6 0.2112739
7 Reciever/Unit1/clock_ticks[0]:7 0.06374004
8 Reciever/Unit1/clock_ticks[0]:8 0.06517272
9 Reciever/Unit1/clock_ticks[0]:9 0.2542111
10 Reciever/Unit1/clock_ticks[0]:10 0.01188039
11 Reciever/Unit1/clock_ticks[0]:11 0.005703277
12 Reciever/Unit1/clock_ticks[0]:12 0.06120902
13 Reciever/Unit1/clock_ticks[0]:13 0.01827184
14 Reciever/Unit1/clock_ticks[0]:14 0.06264423
15 Reciever/Unit1/clock_ticks[0]:15 0.06121155

*RES
0 Reciever\/Unit1\/clock_ticks_reg[0]:Q Reciever/Unit1/clock_ticks[0]:15 1
1 Reciever/Unit1/clock_ticks[0]:14 Reciever/Unit1/clock_ticks[0]:13 0.5
2 Reciever/Unit1/clock_ticks[0]:13 Reciever/Unit1/clock_ticks[0]:12 0.7901786
3 Reciever/Unit1/clock_ticks[0]:15 Reciever/Unit1/clock_ticks[0]:14 2.666072
4 Reciever/Unit1/clock_ticks[0]:11 Reciever\/Unit1\/add_62\/U1:A 1
5 Reciever/Unit1/clock_ticks[0]:11 Reciever/Unit1/clock_ticks[0]:10 0.2825
6 Reciever/Unit1/clock_ticks[0]:12 Reciever/Unit1/clock_ticks[0]:11 0.5
7 Reciever/Unit1/clock_ticks[0]:12 Reciever/Unit1/clock_ticks[0]:9 1.9
8 Reciever/Unit1/clock_ticks[0]:8 Reciever/Unit1/clock_ticks[0]:7 2.666071
9 Reciever/Unit1/clock_ticks[0]:9 Reciever/Unit1/clock_ticks[0]:8 0.5
10 Reciever/Unit1/clock_ticks[0]:9 Reciever/Unit1/clock_ticks[0]:6 9.475893
11 Reciever/Unit1/clock_ticks[0]:7 Reciever\/Unit1\/U6:A2 1
12 Reciever/Unit1/clock_ticks[0]:5 Reciever/Unit1/clock_ticks[0]:4 0.2325
13 Reciever/Unit1/clock_ticks[0]:6 Reciever/Unit1/clock_ticks[0]:5 0.5
14 Reciever/Unit1/clock_ticks[0]:4 Reciever\/Unit1\/add_62\/U1_1_1:B0 1

*END

*D_NET Reciever/Unit1/add_62/carry[9] 0.429136 //LENGTH 4.713 LUMPCC 0 DR

*CONN
*I Reciever\/Unit1\/add_62\/U1_1_8:C1 O *L 0 *C 8.356 36.476
*I Reciever\/Unit1\/add_62\/U2:A1 I *L 0.954271 *C 11.092 34.804
*N Reciever/Unit1/add_62/carry[9]:2 *C 11.092 34.818
*N Reciever/Unit1/add_62/carry[9]:3 *C 11.092 35.855
*N Reciever/Unit1/add_62/carry[9]:4 *C 11.079 35.868
*N Reciever/Unit1/add_62/carry[9]:5 *C 8.370 35.868
*N Reciever/Unit1/add_62/carry[9]:6 *C 8.356 35.882
*N Reciever/Unit1/add_62/carry[9]:7 *C 8.356 36.475

*CAP
0 Reciever\/Unit1\/add_62\/U1_1_8:C1 0.001
1 Reciever\/Unit1\/add_62\/U2:A1 0.001
2 Reciever/Unit1/add_62/carry[9]:2 0.0473552
3 Reciever/Unit1/add_62/carry[9]:3 0.04878788
4 Reciever/Unit1/add_62/carry[9]:4 0.1272014
5 Reciever/Unit1/add_62/carry[9]:5 0.1272014
6 Reciever/Unit1/add_62/carry[9]:6 0.03897682
7 Reciever/Unit1/add_62/carry[9]:7 0.03761332

*RES
0 Reciever\/Unit1\/add_62\/U1_1_8:C1 Reciever/Unit1/add_62/carry[9]:7 1
1 Reciever/Unit1/add_62/carry[9]:2 Reciever\/Unit1\/add_62\/U2:A1 1
2 Reciever/Unit1/add_62/carry[9]:3 Reciever/Unit1/add_62/carry[9]:2 1.851786
3 Reciever/Unit1/add_62/carry[9]:4 Reciever/Unit1/add_62/carry[9]:3 0.5
4 Reciever/Unit1/add_62/carry[9]:6 Reciever/Unit1/add_62/carry[9]:5 0.5
5 Reciever/Unit1/add_62/carry[9]:5 Reciever/Unit1/add_62/carry[9]:4 4.837501
6 Reciever/Unit1/add_62/carry[9]:7 Reciever/Unit1/add_62/carry[9]:6 1.059821

*END

*D_NET Reciever/Unit1/add_62/carry[8] 0.24695 //LENGTH 3.148 LUMPCC 0 DR

*CONN
*I Reciever\/Unit1\/add_62\/U1_1_7:C1 O *L 0 *C 11.244 36.476
*I Reciever\/Unit1\/add_62\/U1_1_8:B0 I *L 0.984521 *C 8.964 36.020
*N Reciever/Unit1/add_62/carry[8]:2 *C 11.244 36.344
*N Reciever/Unit1/add_62/carry[8]:3 *C 8.964 36.034
*N Reciever/Unit1/add_62/carry[8]:4 *C 8.964 36.462
*N Reciever/Unit1/add_62/carry[8]:5 *C 8.978 36.476
*N Reciever/Unit1/add_62/carry[8]:6 *C 11.231 36.476
*N Reciever/Unit1/add_62/carry[8]:7 *C 11.244 36.464

*CAP
0 Reciever\/Unit1\/add_62\/U1_1_7:C1 0.001
1 Reciever\/Unit1\/add_62\/U1_1_8:B0 0.001
2 Reciever/Unit1/add_62/carry[8]:2 0.01172241
3 Reciever/Unit1/add_62/carry[8]:3 0.02134369
4 Reciever/Unit1/add_62/carry[8]:4 0.02277637
5 Reciever/Unit1/add_62/carry[8]:5 0.0937234
6 Reciever/Unit1/add_62/carry[8]:6 0.09174655
7 Reciever/Unit1/add_62/carry[8]:7 0.003637621

*RES
0 Reciever\/Unit1\/add_62\/U1_1_7:C1 Reciever/Unit1/add_62/carry[8]:7 1
1 Reciever/Unit1/add_62/carry[8]:3 Reciever\/Unit1\/add_62\/U1_1_8:B0 1
2 Reciever/Unit1/add_62/carry[8]:4 Reciever/Unit1/add_62/carry[8]:3 0.7660714
3 Reciever/Unit1/add_62/carry[8]:5 Reciever/Unit1/add_62/carry[8]:4 0.5
4 Reciever/Unit1/add_62/carry[8]:7 Reciever/Unit1/add_62/carry[8]:6 0.5
5 Reciever/Unit1/add_62/carry[8]:7 Reciever/Unit1/add_62/carry[8]:2 0.1991667
6 Reciever/Unit1/add_62/carry[8]:6 Reciever/Unit1/add_62/carry[8]:5 4.023214

*END

*D_NET Reciever/Unit1/add_62/carry[7] 0.4737066 //LENGTH 6.081 LUMPCC 0 DR

*CONN
*I Reciever\/Unit1\/add_62\/U1_1_6:C1 O *L 0 *C 6.532 34.348
*I Reciever\/Unit1\/add_62\/U1_1_7:B0 I *L 0.984521 *C 10.636 36.020
*N Reciever/Unit1/add_62/carry[7]:2 *C 10.636 36.007
*N Reciever/Unit1/add_62/carry[7]:3 *C 10.636 35.273
*N Reciever/Unit1/add_62/carry[7]:4 *C 10.623 35.260
*N Reciever/Unit1/add_62/carry[7]:5 *C 6.546 35.260
*N Reciever/Unit1/add_62/carry[7]:6 *C 6.532 35.247
*N Reciever/Unit1/add_62/carry[7]:7 *C 6.532 34.349

*CAP
0 Reciever\/Unit1\/add_62\/U1_1_6:C1 0.001
1 Reciever\/Unit1\/add_62\/U1_1_7:B0 0.001
2 Reciever/Unit1/add_62/carry[7]:2 0.03485492
3 Reciever/Unit1/add_62/carry[7]:3 0.0362876
4 Reciever/Unit1/add_62/carry[7]:4 0.1613344
5 Reciever/Unit1/add_62/carry[7]:5 0.1613344
6 Reciever/Unit1/add_62/carry[7]:6 0.03962939
7 Reciever/Unit1/add_62/carry[7]:7 0.03826589

*RES
0 Reciever\/Unit1\/add_62\/U1_1_6:C1 Reciever/Unit1/add_62/carry[7]:7 1
1 Reciever/Unit1/add_62/carry[7]:2 Reciever\/Unit1\/add_62\/U1_1_7:B0 1
2 Reciever/Unit1/add_62/carry[7]:3 Reciever/Unit1/add_62/carry[7]:2 1.308929
3 Reciever/Unit1/add_62/carry[7]:4 Reciever/Unit1/add_62/carry[7]:3 0.5
4 Reciever/Unit1/add_62/carry[7]:6 Reciever/Unit1/add_62/carry[7]:5 0.5
5 Reciever/Unit1/add_62/carry[7]:5 Reciever/Unit1/add_62/carry[7]:4 7.280358
6 Reciever/Unit1/add_62/carry[7]:7 Reciever/Unit1/add_62/carry[7]:6 1.602679

*END

*D_NET Reciever/Unit1/add_62/carry[6] 0.9920679 //LENGTH 11.553 LUMPCC 0 DR

*CONN
*I Reciever\/Unit1\/add_62\/U1_1_5:C1 O *L 0 *C 0.908 29.788
*I Reciever\/Unit1\/add_62\/U1_1_6:B0 I *L 0.984521 *C 7.140 34.804
*N Reciever/Unit1/add_62/carry[6]:2 *C 7.140 34.791
*N Reciever/Unit1/add_62/carry[6]:3 *C 7.140 34.361
*N Reciever/Unit1/add_62/carry[6]:4 *C 7.127 34.348
*N Reciever/Unit1/add_62/carry[6]:5 *C 0.922 34.348
*N Reciever/Unit1/add_62/carry[6]:6 *C 0.908 34.334
*N Reciever/Unit1/add_62/carry[6]:7 *C 0.908 29.789

*CAP
0 Reciever\/Unit1\/add_62\/U1_1_5:C1 0.001
1 Reciever\/Unit1\/add_62\/U1_1_6:B0 0.001
2 Reciever/Unit1/add_62/carry[6]:2 0.02026991
3 Reciever/Unit1/add_62/carry[6]:3 0.02170259
4 Reciever/Unit1/add_62/carry[6]:4 0.2502507
5 Reciever/Unit1/add_62/carry[6]:5 0.2502507
6 Reciever/Unit1/add_62/carry[6]:6 0.2244788
7 Reciever/Unit1/add_62/carry[6]:7 0.2231153

*RES
0 Reciever\/Unit1\/add_62\/U1_1_5:C1 Reciever/Unit1/add_62/carry[6]:7 1
1 Reciever/Unit1/add_62/carry[6]:2 Reciever\/Unit1\/add_62\/U1_1_6:B0 1
2 Reciever/Unit1/add_62/carry[6]:3 Reciever/Unit1/add_62/carry[6]:2 0.7660714
3 Reciever/Unit1/add_62/carry[6]:4 Reciever/Unit1/add_62/carry[6]:3 0.5
4 Reciever/Unit1/add_62/carry[6]:6 Reciever/Unit1/add_62/carry[6]:5 0.5
5 Reciever/Unit1/add_62/carry[6]:5 Reciever/Unit1/add_62/carry[6]:4 11.08036
6 Reciever/Unit1/add_62/carry[6]:7 Reciever/Unit1/add_62/carry[6]:6 8.116965

*END

*D_NET Reciever/Unit1/add_62/carry[5] 0.1588555 //LENGTH 1.990 LUMPCC 0 DR

*CONN
*I Reciever\/Unit1\/add_62\/U1_1_4:C1 O *L 0 *C 1.668 27.660
*I Reciever\/Unit1\/add_62\/U1_1_5:B0 I *L 0.984521 *C 1.516 29.332
*N Reciever/Unit1/add_62/carry[5]:2 *C 1.516 29.319
*N Reciever/Unit1/add_62/carry[5]:3 *C 1.516 27.660
*N Reciever/Unit1/add_62/carry[5]:4 *C 1.655 27.660

*CAP
0 Reciever\/Unit1\/add_62\/U1_1_4:C1 0.001
1 Reciever\/Unit1\/add_62\/U1_1_5:B0 0.001
2 Reciever/Unit1/add_62/carry[5]:2 0.06915299
3 Reciever/Unit1/add_62/carry[5]:3 0.08219807
4 Reciever/Unit1/add_62/carry[5]:4 0.005504475

*RES
0 Reciever\/Unit1\/add_62\/U1_1_4:C1 Reciever/Unit1/add_62/carry[5]:4 1
1 Reciever/Unit1/add_62/carry[5]:2 Reciever\/Unit1\/add_62\/U1_1_5:B0 1
2 Reciever/Unit1/add_62/carry[5]:4 Reciever/Unit1/add_62/carry[5]:3 0.2473214
3 Reciever/Unit1/add_62/carry[5]:3 Reciever/Unit1/add_62/carry[5]:2 2.961607

*END

*D_NET Reciever/Unit1/add_62/carry[4] 0.2092967 //LENGTH 2.598 LUMPCC 0 DR

*CONN
*I Reciever\/Unit1\/add_62\/U1_1_3:C1 O *L 0 *C 1.820 26.444
*I Reciever\/Unit1\/add_62\/U1_1_4:B0 I *L 0.984521 *C 1.060 28.116
*N Reciever/Unit1/add_62/carry[4]:2 *C 1.060 28.103
*N Reciever/Unit1/add_62/carry[4]:3 *C 1.060 26.444
*N Reciever/Unit1/add_62/carry[4]:4 *C 1.806 26.444

*CAP
0 Reciever\/Unit1\/add_62\/U1_1_3:C1 0.001
1 Reciever\/Unit1\/add_62\/U1_1_4:B0 0.001
2 Reciever/Unit1/add_62/carry[4]:2 0.07098911
3 Reciever/Unit1/add_62/carry[4]:3 0.1074187
4 Reciever/Unit1/add_62/carry[4]:4 0.02888895

*RES
0 Reciever\/Unit1\/add_62\/U1_1_3:C1 Reciever/Unit1/add_62/carry[4]:4 1
1 Reciever/Unit1/add_62/carry[4]:2 Reciever\/Unit1\/add_62\/U1_1_4:B0 1
2 Reciever/Unit1/add_62/carry[4]:4 Reciever/Unit1/add_62/carry[4]:3 1.333036
3 Reciever/Unit1/add_62/carry[4]:3 Reciever/Unit1/add_62/carry[4]:2 2.961607

*END

*D_NET Reciever/Unit1/add_62/carry[3] 0.290424 //LENGTH 3.612 LUMPCC 0 DR

*CONN
*I Reciever\/Unit1\/add_62\/U1_1_2:C1 O *L 0 *C 1.820 23.100
*I Reciever\/Unit1\/add_62\/U1_1_3:B0 I *L 0.984521 *C 1.212 25.988
*N Reciever/Unit1/add_62/carry[3]:2 *C 1.213 25.988
*N Reciever/Unit1/add_62/carry[3]:3 *C 1.820 25.988
*N Reciever/Unit1/add_62/carry[3]:4 *C 1.820 23.101

*CAP
0 Reciever\/Unit1\/add_62\/U1_1_2:C1 0.001
1 Reciever\/Unit1\/add_62\/U1_1_3:B0 0.001
2 Reciever/Unit1/add_62/carry[3]:2 0.02210765
3 Reciever/Unit1/add_62/carry[3]:3 0.1479823
4 Reciever/Unit1/add_62/carry[3]:4 0.118334

*RES
0 Reciever\/Unit1\/add_62\/U1_1_2:C1 Reciever/Unit1/add_62/carry[3]:4 1
1 Reciever/Unit1/add_62/carry[3]:2 Reciever\/Unit1\/add_62\/U1_1_3:B0 1
2 Reciever/Unit1/add_62/carry[3]:4 Reciever/Unit1/add_62/carry[3]:3 5.155357
3 Reciever/Unit1/add_62/carry[3]:3 Reciever/Unit1/add_62/carry[3]:2 1.083929

*END

*D_NET Reciever/Unit1/add_62/carry[2] 0.7850764 //LENGTH 10.210 LUMPCC 0 DR

*CONN
*I Reciever\/Unit1\/add_62\/U1_1_1:C1 O *L 0 *C 9.420 24.316
*I Reciever\/Unit1\/add_62\/U1_1_2:B0 I *L 0.984521 *C 1.212 22.644
*N Reciever/Unit1/add_62/carry[2]:2 *C 1.212 22.658
*N Reciever/Unit1/add_62/carry[2]:3 *C 1.212 23.695
*N Reciever/Unit1/add_62/carry[2]:4 *C 1.226 23.708
*N Reciever/Unit1/add_62/carry[2]:5 *C 9.407 23.708
*N Reciever/Unit1/add_62/carry[2]:6 *C 9.420 23.722
*N Reciever/Unit1/add_62/carry[2]:7 *C 9.420 24.303

*CAP
0 Reciever\/Unit1\/add_62\/U1_1_1:C1 0.001
1 Reciever\/Unit1\/add_62\/U1_1_2:B0 0.001
2 Reciever/Unit1/add_62/carry[2]:2 0.04558675
3 Reciever/Unit1/add_62/carry[2]:3 0.04701943
4 Reciever/Unit1/add_62/carry[2]:4 0.3182319
5 Reciever/Unit1/add_62/carry[2]:5 0.3182319
6 Reciever/Unit1/add_62/carry[2]:6 0.02771962
7 Reciever/Unit1/add_62/carry[2]:7 0.02628694

*RES
0 Reciever\/Unit1\/add_62\/U1_1_1:C1 Reciever/Unit1/add_62/carry[2]:7 1
1 Reciever/Unit1/add_62/carry[2]:2 Reciever\/Unit1\/add_62\/U1_1_2:B0 1
2 Reciever/Unit1/add_62/carry[2]:3 Reciever/Unit1/add_62/carry[2]:2 1.851786
3 Reciever/Unit1/add_62/carry[2]:4 Reciever/Unit1/add_62/carry[2]:3 0.5
4 Reciever/Unit1/add_62/carry[2]:6 Reciever/Unit1/add_62/carry[2]:5 0.5
5 Reciever/Unit1/add_62/carry[2]:5 Reciever/Unit1/add_62/carry[2]:4 14.60893
6 Reciever/Unit1/add_62/carry[2]:7 Reciever/Unit1/add_62/carry[2]:6 1.0375

*END

*D_NET Reciever/Unit2/N137 0.3056568 //LENGTH 3.558 LUMPCC 0 DR

*CONN
*I Reciever\/Unit2\/U101:Y O *L 0 *C 20.668 3.948
*I Reciever\/Unit2\/next_state_reg[0]:D I *L 0.540354 *C 21.276 1.364
*N Reciever/Unit2/N137:2 *C 21.276 1.364
*N Reciever/Unit2/N137:3 *C 21.276 1.504
*N Reciever/Unit2/N137:4 *C 21.262 1.516
*N Reciever/Unit2/N137:5 *C 20.834 1.516
*N Reciever/Unit2/N137:6 *C 20.820 1.530
*N Reciever/Unit2/N137:7 *C 20.820 3.948
*N Reciever/Unit2/N137:8 *C 20.669 3.948

*CAP
0 Reciever\/Unit2\/U101:Y 0.001
1 Reciever\/Unit2\/next_state_reg[0]:D 0.001
2 Reciever/Unit2/N137:2 0.008614348
3 Reciever/Unit2/N137:3 0.01004703
4 Reciever/Unit2/N137:4 0.02117806
5 Reciever/Unit2/N137:5 0.02117806
6 Reciever/Unit2/N137:6 0.1116208
7 Reciever/Unit2/N137:7 0.1244082
8 Reciever/Unit2/N137:8 0.006610285

*RES
0 Reciever\/Unit2\/U101:Y Reciever/Unit2/N137:8 1
1 Reciever/Unit2/N137:2 Reciever\/Unit2\/next_state_reg[0]:D 1
2 Reciever/Unit2/N137:3 Reciever/Unit2/N137:2 0.2325
3 Reciever/Unit2/N137:4 Reciever/Unit2/N137:3 0.5
4 Reciever/Unit2/N137:6 Reciever/Unit2/N137:5 0.5
5 Reciever/Unit2/N137:5 Reciever/Unit2/N137:4 0.7660714
6 Reciever/Unit2/N137:8 Reciever/Unit2/N137:7 0.2696429
7 Reciever/Unit2/N137:7 Reciever/Unit2/N137:6 4.31875

*END

*D_NET Reciever/Unit2/N138 0.7343985 //LENGTH 8.375 LUMPCC 0 DR

*CONN
*I Reciever\/Unit2\/U100:Y O *L 0 *C 25.836 7.292
*I Reciever\/Unit2\/next_state_reg[1]:D I *L 0.540354 *C 29.180 2.702
*N Reciever/Unit2/N138:2 *C 29.180 2.732
*N Reciever/Unit2/N138:3 *C 29.180 2.746
*N Reciever/Unit2/N138:4 *C 29.180 3.327
*N Reciever/Unit2/N138:5 *C 29.167 3.340
*N Reciever/Unit2/N138:6 *C 26.002 3.340
*N Reciever/Unit2/N138:7 *C 25.988 3.354
*N Reciever/Unit2/N138:8 *C 25.988 7.292
*N Reciever/Unit2/N138:9 *C 25.837 7.292

*CAP
0 Reciever\/Unit2\/U100:Y 0.001
1 Reciever\/Unit2\/next_state_reg[1]:D 0.006684577
2 Reciever/Unit2/N138:2 0.004609178
3 Reciever/Unit2/N138:3 0.02922308
4 Reciever/Unit2/N138:4 0.02892626
5 Reciever/Unit2/N138:5 0.1260872
6 Reciever/Unit2/N138:6 0.1260872
7 Reciever/Unit2/N138:7 0.1982967
8 Reciever/Unit2/N138:8 0.2089791
9 Reciever/Unit2/N138:9 0.004505196

*RES
0 Reciever\/Unit2\/U100:Y Reciever/Unit2/N138:9 1
1 Reciever/Unit2/N138:2 Reciever\/Unit2\/next_state_reg[1]:D 0.02727273
2 Reciever/Unit2/N138:3 Reciever/Unit2/N138:2 1
3 Reciever/Unit2/N138:4 Reciever/Unit2/N138:3 1.0375
4 Reciever/Unit2/N138:5 Reciever/Unit2/N138:4 0.5
5 Reciever/Unit2/N138:7 Reciever/Unit2/N138:6 0.5
6 Reciever/Unit2/N138:6 Reciever/Unit2/N138:5 5.651785
7 Reciever/Unit2/N138:9 Reciever/Unit2/N138:8 0.2696429
8 Reciever/Unit2/N138:8 Reciever/Unit2/N138:7 7.033037

*END

*D_NET Reciever/Unit2/n20 0.4401434 //LENGTH 5.031 LUMPCC 0 DR

*CONN
*I Reciever\/Unit2\/next_state_reg[1]:QN O *L 0 *C 25.350 3.133
*I Reciever\/Unit2\/U107:A2 I *L 0.46235 *C 23.708 2.732
*I Reciever\/Unit2\/U106:A2 I *L 0.46235 *C 25.532 1.212
*N Reciever/Unit2/n20:3 *C 25.518 1.212
*N Reciever/Unit2/n20:4 *C 25.380 1.212
*N Reciever/Unit2/n20:5 *C 23.708 2.733
*N Reciever/Unit2/n20:6 *C 23.708 3.327
*N Reciever/Unit2/n20:7 *C 23.722 3.340
*N Reciever/Unit2/n20:8 *C 25.367 3.340
*N Reciever/Unit2/n20:9 *C 25.380 3.328
*N Reciever/Unit2/n20:10 *C 25.380 3.187

*CAP
0 Reciever\/Unit2\/next_state_reg[1]:QN 0.001
1 Reciever\/Unit2\/U107:A2 0.001
2 Reciever\/Unit2\/U106:A2 0.001
3 Reciever/Unit2/n20:3 0.006123761
4 Reciever/Unit2/n20:4 0.1130122
5 Reciever/Unit2/n20:5 0.03028054
6 Reciever/Unit2/n20:6 0.03154027
7 Reciever/Unit2/n20:7 0.06566933
8 Reciever/Unit2/n20:8 0.06566933
9 Reciever/Unit2/n20:9 0.01151207
10 Reciever/Unit2/n20:10 0.1133359

*RES
0 Reciever\/Unit2\/next_state_reg[1]:QN Reciever/Unit2/n20:10 1
1 Reciever/Unit2/n20:3 Reciever\/Unit2\/U106:A2 1
2 Reciever/Unit2/n20:10 Reciever/Unit2/n20:9 0.2341667
3 Reciever/Unit2/n20:10 Reciever/Unit2/n20:4 3.526786
4 Reciever/Unit2/n20:9 Reciever/Unit2/n20:8 0.5
5 Reciever/Unit2/n20:8 Reciever/Unit2/n20:7 2.9375
6 Reciever/Unit2/n20:6 Reciever/Unit2/n20:5 1.059821
7 Reciever/Unit2/n20:7 Reciever/Unit2/n20:6 0.5
8 Reciever/Unit2/n20:5 Reciever\/Unit2\/U107:A2 1
9 Reciever/Unit2/n20:4 Reciever/Unit2/n20:3 0.2473214

*END

*D_NET Reciever/Unit2/n21 0.6564038 //LENGTH 8.063 LUMPCC 0 DR

*CONN
*I Reciever\/Unit2\/next_state_reg[0]:QN O *L 0 *C 25.106 0.811
*I Reciever\/Unit2\/U108:A2 I *L 0.529633 *C 21.276 2.732
*I Reciever\/Unit2\/U107:A1 I *L 0.545591 *C 23.556 3.036
*N Reciever/Unit2/n21:3 *C 23.556 3.035
*N Reciever/Unit2/n21:4 *C 23.556 2.746
*N Reciever/Unit2/n21:5 *C 23.543 2.732
*N Reciever/Unit2/n21:6 *C 21.276 2.550
*N Reciever/Unit2/n21:7 *C 21.276 2.720
*N Reciever/Unit2/n21:8 *C 21.290 2.732
*N Reciever/Unit2/n21:9 *C 22.340 2.732
*N Reciever/Unit2/n21:10 *C 22.340 2.719
*N Reciever/Unit2/n21:11 *C 22.340 1.226
*N Reciever/Unit2/n21:12 *C 22.354 1.212
*N Reciever/Unit2/n21:13 *C 25.062 1.212
*N Reciever/Unit2/n21:14 *C 25.076 1.199
*N Reciever/Unit2/n21:15 *C 25.076 0.770

*CAP
0 Reciever\/Unit2\/next_state_reg[0]:QN 0.001
1 Reciever\/Unit2\/U108:A2 0.001
2 Reciever\/Unit2\/U107:A1 0.001
3 Reciever/Unit2/n21:3 0.01863755
4 Reciever/Unit2/n21:4 0.02007023
5 Reciever/Unit2/n21:5 0.05693746
6 Reciever/Unit2/n21:6 0.01494051
7 Reciever/Unit2/n21:7 0.008763396
8 Reciever/Unit2/n21:8 0.04559931
9 Reciever/Unit2/n21:9 0.104909
10 Reciever/Unit2/n21:10 0.06586662
11 Reciever/Unit2/n21:11 0.06586662
12 Reciever/Unit2/n21:12 0.1010834
13 Reciever/Unit2/n21:13 0.1010834
14 Reciever/Unit2/n21:14 0.02553948
15 Reciever/Unit2/n21:15 0.0241068

*RES
0 Reciever\/Unit2\/next_state_reg[0]:QN Reciever/Unit2/n21:15 1
1 Reciever/Unit2/n21:4 Reciever/Unit2/n21:3 0.5169643
2 Reciever/Unit2/n21:5 Reciever/Unit2/n21:4 0.5
3 Reciever/Unit2/n21:3 Reciever\/Unit2\/U107:A1 1
4 Reciever/Unit2/n21:10 Reciever/Unit2/n21:9 0.5
5 Reciever/Unit2/n21:9 Reciever/Unit2/n21:8 1.875893
6 Reciever/Unit2/n21:9 Reciever/Unit2/n21:5 2.147321
7 Reciever/Unit2/n21:11 Reciever/Unit2/n21:10 2.666071
8 Reciever/Unit2/n21:12 Reciever/Unit2/n21:11 0.5
9 Reciever/Unit2/n21:14 Reciever/Unit2/n21:13 0.5
10 Reciever/Unit2/n21:13 Reciever/Unit2/n21:12 4.837501
11 Reciever/Unit2/n21:15 Reciever/Unit2/n21:14 0.7660715
12 Reciever/Unit2/n21:7 Reciever\/Unit2\/U108:A2 1
13 Reciever/Unit2/n21:7 Reciever/Unit2/n21:6 0.2825
14 Reciever/Unit2/n21:8 Reciever/Unit2/n21:7 0.5

*END

*D_NET Reciever/Unit2/n25 0.5959364 //LENGTH 5.671 LUMPCC 0 DR

*CONN
*I Reciever\/Unit2\/stop_count_reg[0]:QN O *L 0 *C 31.004 0.756
*I Reciever\/Unit2\/U78:A1 I *L 0.548399 *C 31.612 1.338
*I Reciever\/Unit2\/U79:A2 I *L 0.447801 *C 32.068 2.732
*I Reciever\/Unit2\/U80:A4 I *L 0.545401 *C 30.700 2.580
*N Reciever/Unit2/n25:4 *C 30.700 2.568
*N Reciever/Unit2/n25:5 *C 30.701 2.428
*N Reciever/Unit2/n25:6 *C 32.068 2.719
*N Reciever/Unit2/n25:7 *C 32.068 2.442
*N Reciever/Unit2/n25:8 *C 32.055 2.428
*N Reciever/Unit2/n25:9 *C 31.536 1.364
*N Reciever/Unit2/n25:10 *C 31.536 1.364
*N Reciever/Unit2/n25:11 *C 31.612 2.415
*N Reciever/Unit2/n25:12 *C 31.612 2.428
*N Reciever/Unit2/n25:13 *C 30.866 2.428
*N Reciever/Unit2/n25:14 *C 30.852 2.415
*N Reciever/Unit2/n25:15 *C 30.852 1.820
*N Reciever/Unit2/n25:16 *C 31.004 1.820
*N Reciever/Unit2/n25:17 *C 31.004 0.770

*CAP
0 Reciever\/Unit2\/stop_count_reg[0]:QN 0.001
1 Reciever\/Unit2\/U78:A1 0.02169895
2 Reciever\/Unit2\/U79:A2 0.001
3 Reciever\/Unit2\/U80:A4 0.001
4 Reciever/Unit2/n25:4 0.01262007
5 Reciever/Unit2/n25:5 0.02554892
6 Reciever/Unit2/n25:6 0.02302683
7 Reciever/Unit2/n25:7 0.02445951
8 Reciever/Unit2/n25:8 0.02048298
9 Reciever/Unit2/n25:9 0.01436587
10 Reciever/Unit2/n25:10 0.06091004
11 Reciever/Unit2/n25:11 0.05220938
12 Reciever/Unit2/n25:12 0.05656585
13 Reciever/Unit2/n25:13 0.03371065
14 Reciever/Unit2/n25:14 0.04839039
15 Reciever/Unit2/n25:15 0.05011466
16 Reciever/Unit2/n25:16 0.08055664
17 Reciever/Unit2/n25:17 0.06827573

*RES
0 Reciever\/Unit2\/stop_count_reg[0]:QN Reciever/Unit2/n25:17 1
1 Reciever/Unit2/n25:7 Reciever/Unit2/n25:6 0.4946429
2 Reciever/Unit2/n25:8 Reciever/Unit2/n25:7 0.5
3 Reciever/Unit2/n25:6 Reciever\/Unit2\/U79:A2 1
4 Reciever/Unit2/n25:11 Reciever/Unit2/n25:10 1.875893
5 Reciever/Unit2/n25:12 Reciever/Unit2/n25:11 0.5
6 Reciever/Unit2/n25:12 Reciever/Unit2/n25:8 0.7901787
7 Reciever/Unit2/n25:9 Reciever\/Unit2\/U78:A1 0.2183334
8 Reciever/Unit2/n25:10 Reciever/Unit2/n25:9 0.5
9 Reciever/Unit2/n25:17 Reciever/Unit2/n25:16 1.875893
10 Reciever/Unit2/n25:14 Reciever/Unit2/n25:13 0.5
11 Reciever/Unit2/n25:14 Reciever/Unit2/n25:5 0.2696429
12 Reciever/Unit2/n25:13 Reciever/Unit2/n25:12 1.333036
13 Reciever/Unit2/n25:4 Reciever\/Unit2\/U80:A4 1
14 Reciever/Unit2/n25:5 Reciever/Unit2/n25:4 0.2325
15 Reciever/Unit2/n25:15 Reciever/Unit2/n25:14 1.061607
16 Reciever/Unit2/n25:16 Reciever/Unit2/n25:15 0.2714286

*END

*D_NET Reciever/Unit2/n30 1.512482 //LENGTH 15.543 LUMPCC 0 DR

*CONN
*I Reciever\/Unit2\/frame_counter_reg[0]:QN O *L 0 *C 8.356 0.756
*I Reciever\/Unit2\/U38:A2 I *L 0.447801 *C 10.636 11.244
*I Reciever\/Unit2\/U63:A2 I *L 0.529633 *C 11.548 9.420
*I Reciever\/Unit2\/U92:A4 I *L 0.545401 *C 9.268 2.580
*N Reciever/Unit2/n30:4 *C 9.268 2.567
*N Reciever/Unit2/n30:5 *C 11.548 9.407
*N Reciever/Unit2/n30:6 *C 11.548 8.825
*N Reciever/Unit2/n30:7 *C 11.535 8.812
*N Reciever/Unit2/n30:8 *C 10.636 11.231
*N Reciever/Unit2/n30:9 *C 10.636 8.825
*N Reciever/Unit2/n30:10 *C 10.636 8.812
*N Reciever/Unit2/n30:11 *C 9.130 8.812
*N Reciever/Unit2/n30:12 *C 9.116 8.799
*N Reciever/Unit2/n30:13 *C 9.116 2.428
*N Reciever/Unit2/n30:14 *C 9.268 2.428
*N Reciever/Unit2/n30:15 *C 9.268 1.226
*N Reciever/Unit2/n30:16 *C 9.255 1.212
*N Reciever/Unit2/n30:17 *C 8.370 1.212
*N Reciever/Unit2/n30:18 *C 8.356 1.199
*N Reciever/Unit2/n30:19 *C 8.356 0.770

*CAP
0 Reciever\/Unit2\/frame_counter_reg[0]:QN 0.001
1 Reciever\/Unit2\/U38:A2 0.001
2 Reciever\/Unit2\/U63:A2 0.001
3 Reciever\/Unit2\/U92:A4 0.001
4 Reciever/Unit2/n30:4 0.01130797
5 Reciever/Unit2/n30:5 0.04179274
6 Reciever/Unit2/n30:6 0.04322542
7 Reciever/Unit2/n30:7 0.04119091
8 Reciever/Unit2/n30:8 0.1396077
9 Reciever/Unit2/n30:9 0.1410404
10 Reciever/Unit2/n30:10 0.1091968
11 Reciever/Unit2/n30:11 0.06563369
12 Reciever/Unit2/n30:12 0.3103148
13 Reciever/Unit2/n30:13 0.3211735
14 Reciever/Unit2/n30:14 0.09466767
15 Reciever/Unit2/n30:15 0.06869622
16 Reciever/Unit2/n30:16 0.03879164
17 Reciever/Unit2/n30:17 0.03879164
18 Reciever/Unit2/n30:18 0.02224174
19 Reciever/Unit2/n30:19 0.02080906

*RES
0 Reciever\/Unit2\/frame_counter_reg[0]:QN Reciever/Unit2/n30:19 1
1 Reciever/Unit2/n30:6 Reciever/Unit2/n30:5 1.0375
2 Reciever/Unit2/n30:7 Reciever/Unit2/n30:6 0.5
3 Reciever/Unit2/n30:5 Reciever\/Unit2\/U63:A2 1
4 Reciever/Unit2/n30:9 Reciever/Unit2/n30:8 4.294643
5 Reciever/Unit2/n30:10 Reciever/Unit2/n30:9 0.5
6 Reciever/Unit2/n30:10 Reciever/Unit2/n30:7 1.604464
7 Reciever/Unit2/n30:8 Reciever\/Unit2\/U38:A2 1
8 Reciever/Unit2/n30:4 Reciever\/Unit2\/U92:A4 1
9 Reciever/Unit2/n30:12 Reciever/Unit2/n30:11 0.5
10 Reciever/Unit2/n30:11 Reciever/Unit2/n30:10 2.690179
11 Reciever/Unit2/n30:15 Reciever/Unit2/n30:14 2.147322
12 Reciever/Unit2/n30:16 Reciever/Unit2/n30:15 0.5
13 Reciever/Unit2/n30:18 Reciever/Unit2/n30:17 0.5
14 Reciever/Unit2/n30:17 Reciever/Unit2/n30:16 1.580357
15 Reciever/Unit2/n30:19 Reciever/Unit2/n30:18 0.7660714
16 Reciever/Unit2/n30:13 Reciever/Unit2/n30:12 11.37589
17 Reciever/Unit2/n30:14 Reciever/Unit2/n30:13 0.2714286
18 Reciever/Unit2/n30:14 Reciever/Unit2/n30:4 0.2473214

*END

*D_NET Reciever/Unit2/n33 1.850558 //LENGTH 18.462 LUMPCC 0 DR

*CONN
*I Reciever\/Unit2\/U108:Y O *L 0 *C 20.668 3.492
*I Reciever\/Unit2\/U101:A2 I *L 0.484089 *C 19.604 4.708
*I Reciever\/Unit2\/U99:A3 I *L 0.5071 *C 21.124 7.748
*I Reciever\/Unit2\/U34:A1 I *L 0.467813 *C 21.732 11.244
*I Reciever\/Unit2\/U84:A2 I *L 0.447801 *C 22.948 6.076
*I Reciever\/Unit2\/U100:A5 I *L 0.523436 *C 25.380 7.900
*I Reciever\/Unit2\/U98:A2 I *L 0.447801 *C 20.060 7.900
*N Reciever/Unit2/n33:7 *C 25.380 7.718
*N Reciever/Unit2/n33:8 *C 25.380 7.888
*N Reciever/Unit2/n33:9 *C 25.367 7.900
*N Reciever/Unit2/n33:10 *C 22.948 6.090
*N Reciever/Unit2/n33:11 *C 22.948 7.887
*N Reciever/Unit2/n33:12 *C 22.948 7.900
*N Reciever/Unit2/n33:13 *C 21.732 11.062
*N Reciever/Unit2/n33:14 *C 21.732 11.232
*N Reciever/Unit2/n33:15 *C 21.719 11.244
*N Reciever/Unit2/n33:16 *C 21.290 11.244
*N Reciever/Unit2/n33:17 *C 21.276 11.231
*N Reciever/Unit2/n33:18 *C 21.124 7.762
*N Reciever/Unit2/n33:19 *C 21.124 7.900
*N Reciever/Unit2/n33:20 *C 21.276 7.913
*N Reciever/Unit2/n33:21 *C 21.276 7.900
*N Reciever/Unit2/n33:22 *C 20.073 7.900
*N Reciever/Unit2/n33:23 *C 20.060 7.887
*N Reciever/Unit2/n33:24 *C 19.604 4.708
*N Reciever/Unit2/n33:25 *C 19.604 4.848
*N Reciever/Unit2/n33:26 *C 19.617 4.860
*N Reciever/Unit2/n33:27 *C 20.047 4.860
*N Reciever/Unit2/n33:28 *C 20.060 4.860
*N Reciever/Unit2/n33:29 *C 20.060 3.796
*N Reciever/Unit2/n33:30 *C 20.668 3.796
*N Reciever/Unit2/n33:31 *C 20.668 3.506

*CAP
0 Reciever\/Unit2\/U108:Y 0.001
1 Reciever\/Unit2\/U101:A2 0.001
2 Reciever\/Unit2\/U99:A3 0.001
3 Reciever\/Unit2\/U34:A1 0.001
4 Reciever\/Unit2\/U84:A2 0.001
5 Reciever\/Unit2\/U100:A5 0.001
6 Reciever\/Unit2\/U98:A2 0.001
7 Reciever/Unit2/n33:7 0.01797984
8 Reciever/Unit2/n33:8 0.01180272
9 Reciever/Unit2/n33:9 0.1201989
10 Reciever/Unit2/n33:10 0.0812401
11 Reciever/Unit2/n33:11 0.08267278
12 Reciever/Unit2/n33:12 0.1958138
13 Reciever/Unit2/n33:13 0.01806472
14 Reciever/Unit2/n33:14 0.0118876
15 Reciever/Unit2/n33:15 0.02223077
16 Reciever/Unit2/n33:16 0.02223077
17 Reciever/Unit2/n33:17 0.1584009
18 Reciever/Unit2/n33:18 0.007898683
19 Reciever/Unit2/n33:19 0.02014606
20 Reciever/Unit2/n33:20 0.1668434
21 Reciever/Unit2/n33:21 0.126598
22 Reciever/Unit2/n33:22 0.05098302
23 Reciever/Unit2/n33:23 0.1958795
24 Reciever/Unit2/n33:24 0.02160735
25 Reciever/Unit2/n33:25 0.02304003
26 Reciever/Unit2/n33:26 0.02154596
27 Reciever/Unit2/n33:27 0.02154596
28 Reciever/Unit2/n33:28 0.274513
29 Reciever/Unit2/n33:29 0.1048854
30 Reciever/Unit2/n33:30 0.04940307
31 Reciever/Unit2/n33:31 0.01614577

*RES
0 Reciever\/Unit2\/U108:Y Reciever/Unit2/n33:31 1
1 Reciever/Unit2/n33:8 Reciever\/Unit2\/U100:A5 1
2 Reciever/Unit2/n33:8 Reciever/Unit2/n33:7 0.2825
3 Reciever/Unit2/n33:9 Reciever/Unit2/n33:8 0.5
4 Reciever/Unit2/n33:11 Reciever/Unit2/n33:10 3.208929
5 Reciever/Unit2/n33:12 Reciever/Unit2/n33:11 0.5
6 Reciever/Unit2/n33:12 Reciever/Unit2/n33:9 4.31875
7 Reciever/Unit2/n33:10 Reciever\/Unit2\/U84:A2 1
8 Reciever/Unit2/n33:17 Reciever/Unit2/n33:16 0.5
9 Reciever/Unit2/n33:16 Reciever/Unit2/n33:15 0.7660714
10 Reciever/Unit2/n33:14 Reciever\/Unit2\/U34:A1 1
11 Reciever/Unit2/n33:14 Reciever/Unit2/n33:13 0.2825
12 Reciever/Unit2/n33:15 Reciever/Unit2/n33:14 0.5
13 Reciever/Unit2/n33:20 Reciever/Unit2/n33:19 0.2714286
14 Reciever/Unit2/n33:20 Reciever/Unit2/n33:17 5.923214
15 Reciever/Unit2/n33:21 Reciever/Unit2/n33:20 0.5
16 Reciever/Unit2/n33:21 Reciever/Unit2/n33:12 2.985714
17 Reciever/Unit2/n33:18 Reciever\/Unit2\/U99:A3 1
18 Reciever/Unit2/n33:31 Reciever/Unit2/n33:30 0.5187501
19 Reciever/Unit2/n33:23 Reciever/Unit2/n33:22 0.5
20 Reciever/Unit2/n33:23 Reciever\/Unit2\/U98:A2 1
21 Reciever/Unit2/n33:22 Reciever/Unit2/n33:21 2.147322
22 Reciever/Unit2/n33:28 Reciever/Unit2/n33:27 0.5
23 Reciever/Unit2/n33:28 Reciever/Unit2/n33:23 5.404464
24 Reciever/Unit2/n33:27 Reciever/Unit2/n33:26 0.7660714
25 Reciever/Unit2/n33:25 Reciever/Unit2/n33:24 0.2325
26 Reciever/Unit2/n33:26 Reciever/Unit2/n33:25 0.5
27 Reciever/Unit2/n33:24 Reciever\/Unit2\/U101:A2 1
28 Reciever/Unit2/n33:29 Reciever/Unit2/n33:28 1.9
29 Reciever/Unit2/n33:30 Reciever/Unit2/n33:29 1.085714
30 Reciever/Unit2/n33:19 Reciever/Unit2/n33:18 0.2473214

*END

*D_NET Reciever/Unit2/n34 0.276699 //LENGTH 2.668 LUMPCC 0 DR

*CONN
*I Reciever\/Unit2\/U95:Y O *L 0 *C 21.732 9.876
*I Reciever\/Unit2\/U6:A I *L 0.577904 *C 22.492 9.420
*I Reciever\/Unit2\/U34:A2 I *L 0.458594 *C 21.884 10.940
*N Reciever/Unit2/n34:3 *C 21.884 10.927
*N Reciever/Unit2/n34:4 *C 22.492 9.434
*N Reciever/Unit2/n34:5 *C 22.492 9.710
*N Reciever/Unit2/n34:6 *C 22.479 9.724
*N Reciever/Unit2/n34:7 *C 21.898 9.724
*N Reciever/Unit2/n34:8 *C 21.884 9.738
*N Reciever/Unit2/n34:9 *C 21.884 9.876
*N Reciever/Unit2/n34:10 *C 21.733 9.876

*CAP
0 Reciever\/Unit2\/U95:Y 0.001
1 Reciever\/Unit2\/U6:A 0.001
2 Reciever\/Unit2\/U34:A2 0.001
3 Reciever/Unit2/n34:3 0.07244634
4 Reciever/Unit2/n34:4 0.01375117
5 Reciever/Unit2/n34:5 0.01518384
6 Reciever/Unit2/n34:6 0.03007923
7 Reciever/Unit2/n34:7 0.03007923
8 Reciever/Unit2/n34:8 0.009753106
9 Reciever/Unit2/n34:9 0.09726392
10 Reciever/Unit2/n34:10 0.005142184

*RES
0 Reciever\/Unit2\/U95:Y Reciever/Unit2/n34:10 1
1 Reciever/Unit2/n34:3 Reciever\/Unit2\/U34:A2 1
2 Reciever/Unit2/n34:8 Reciever/Unit2/n34:7 0.5
3 Reciever/Unit2/n34:7 Reciever/Unit2/n34:6 1.0375
4 Reciever/Unit2/n34:5 Reciever/Unit2/n34:4 0.4946429
5 Reciever/Unit2/n34:6 Reciever/Unit2/n34:5 0.5
6 Reciever/Unit2/n34:4 Reciever\/Unit2\/U6:A 1
7 Reciever/Unit2/n34:10 Reciever/Unit2/n34:9 0.2696429
8 Reciever/Unit2/n34:9 Reciever/Unit2/n34:8 0.2473214
9 Reciever/Unit2/n34:9 Reciever/Unit2/n34:3 1.875893

*END

*D_NET Reciever/Unit2/n35 4.934644 //LENGTH 51.204 LUMPCC 0 DR

*CONN
*I Reciever\/Unit2\/U67:Y O *L 0 *C 17.324 4.708
*I Reciever\/Unit2\/U66:A4 I *L 0.545401 *C 19.756 12.612
*I Reciever\/Unit2\/U54:A4 I *L 0.545401 *C 13.676 14.740
*I Reciever\/Unit2\/U52:A4 I *L 0.545401 *C 11.852 14.740
*I Reciever\/Unit2\/U60:A4 I *L 0.545401 *C 10.332 15.956
*I Reciever\/Unit2\/U37:A4 I *L 0.545401 *C 7.596 14.740
*I Reciever\/Unit2\/U43:A4 I *L 0.545401 *C 5.468 14.740
*I Reciever\/Unit2\/U49:A4 I *L 0.545401 *C 4.252 12.612
*I Reciever\/Unit2\/U46:A4 I *L 0.545401 *C 4.556 8.052
*I Reciever\/Unit2\/U57:A4 I *L 0.545401 *C 5.316 5.924
*I Reciever\/Unit2\/U39:A4 I *L 0.545401 *C 1.516 2.580
*I Reciever\/Unit2\/U35:A3 I *L 0.535173 *C 20.364 15.196
*N Reciever/Unit2/n35:12 *C 20.364 15.183
*N Reciever/Unit2/n35:13 *C 20.364 14.602
*N Reciever/Unit2/n35:14 *C 20.351 14.588
*N Reciever/Unit2/n35:15 *C 1.516 2.580
*N Reciever/Unit2/n35:16 *C 1.516 2.720
*N Reciever/Unit2/n35:17 *C 1.530 2.732
*N Reciever/Unit2/n35:18 *C 4.543 2.732
*N Reciever/Unit2/n35:19 *C 4.556 2.746
*N Reciever/Unit2/n35:20 *C 5.316 5.912
*N Reciever/Unit2/n35:21 *C 5.316 5.772
*N Reciever/Unit2/n35:22 *C 5.303 5.772
*N Reciever/Unit2/n35:23 *C 4.570 5.772
*N Reciever/Unit2/n35:24 *C 4.556 5.772
*N Reciever/Unit2/n35:25 *C 4.556 8.051
*N Reciever/Unit2/n35:26 *C 4.556 8.191
*N Reciever/Unit2/n35:27 *C 4.543 8.204
*N Reciever/Unit2/n35:28 *C 4.266 8.204
*N Reciever/Unit2/n35:29 *C 4.252 8.218
*N Reciever/Unit2/n35:30 *C 4.252 12.612
*N Reciever/Unit2/n35:31 *C 4.252 14.575
*N Reciever/Unit2/n35:32 *C 4.266 14.588
*N Reciever/Unit2/n35:33 *C 5.468 14.728
*N Reciever/Unit2/n35:34 *C 5.468 14.588
*N Reciever/Unit2/n35:35 *C 5.468 14.588
*N Reciever/Unit2/n35:36 *C 7.596 14.728
*N Reciever/Unit2/n35:37 *C 7.596 14.588
*N Reciever/Unit2/n35:38 *C 7.596 14.588
*N Reciever/Unit2/n35:39 *C 10.332 15.944
*N Reciever/Unit2/n35:40 *C 10.332 15.804
*N Reciever/Unit2/n35:41 *C 10.346 15.804
*N Reciever/Unit2/n35:42 *C 11.838 15.804
*N Reciever/Unit2/n35:43 *C 11.852 15.791
*N Reciever/Unit2/n35:44 *C 11.852 14.754
*N Reciever/Unit2/n35:45 *C 11.852 14.601
*N Reciever/Unit2/n35:46 *C 11.852 14.588
*N Reciever/Unit2/n35:47 *C 13.676 14.728
*N Reciever/Unit2/n35:48 *C 13.676 14.588
*N Reciever/Unit2/n35:49 *C 13.676 14.588
*N Reciever/Unit2/n35:50 *C 19.756 14.588
*N Reciever/Unit2/n35:51 *C 19.756 14.575
*N Reciever/Unit2/n35:52 *C 19.756 12.626
*N Reciever/Unit2/n35:53 *C 19.756 12.473
*N Reciever/Unit2/n35:54 *C 19.742 12.460
*N Reciever/Unit2/n35:55 *C 17.642 12.460
*N Reciever/Unit2/n35:56 *C 17.628 12.447
*N Reciever/Unit2/n35:57 *C 17.628 10.332
*N Reciever/Unit2/n35:58 *C 17.476 10.332
*N Reciever/Unit2/n35:59 *C 17.476 4.860
*N Reciever/Unit2/n35:60 *C 17.324 4.860
*N Reciever/Unit2/n35:61 *C 17.324 4.721

*CAP
0 Reciever\/Unit2\/U67:Y 0.001
1 Reciever\/Unit2\/U66:A4 0.001
2 Reciever\/Unit2\/U54:A4 0.001
3 Reciever\/Unit2\/U52:A4 0.001
4 Reciever\/Unit2\/U60:A4 0.001
5 Reciever\/Unit2\/U37:A4 0.001
6 Reciever\/Unit2\/U43:A4 0.001
7 Reciever\/Unit2\/U49:A4 0.001
8 Reciever\/Unit2\/U46:A4 0.001
9 Reciever\/Unit2\/U57:A4 0.001
10 Reciever\/Unit2\/U39:A4 0.001
11 Reciever\/Unit2\/U35:A3 0.001
12 Reciever/Unit2/n35:12 0.03475076
13 Reciever/Unit2/n35:13 0.03618344
14 Reciever/Unit2/n35:14 0.02983426
15 Reciever/Unit2/n35:15 0.01450313
16 Reciever/Unit2/n35:16 0.01593581
17 Reciever/Unit2/n35:17 0.1107614
18 Reciever/Unit2/n35:18 0.1107614
19 Reciever/Unit2/n35:19 0.1434424
20 Reciever/Unit2/n35:20 0.009839729
21 Reciever/Unit2/n35:21 0.01127241
22 Reciever/Unit2/n35:22 0.03744344
23 Reciever/Unit2/n35:23 0.03744344
24 Reciever/Unit2/n35:24 0.2704791
25 Reciever/Unit2/n35:25 0.1371279
26 Reciever/Unit2/n35:26 0.01152393
27 Reciever/Unit2/n35:27 0.01286197
28 Reciever/Unit2/n35:28 0.01286197
29 Reciever/Unit2/n35:29 0.238599
30 Reciever/Unit2/n35:30 0.3620869
31 Reciever/Unit2/n35:31 0.1225484
32 Reciever/Unit2/n35:32 0.05172293
33 Reciever/Unit2/n35:33 0.01245952
34 Reciever/Unit2/n35:34 0.0138922
35 Reciever/Unit2/n35:35 0.1410532
36 Reciever/Unit2/n35:36 0.01312045
37 Reciever/Unit2/n35:37 0.01455313
38 Reciever/Unit2/n35:38 0.2699277
39 Reciever/Unit2/n35:39 0.01309097
40 Reciever/Unit2/n35:40 0.01452365
41 Reciever/Unit2/n35:41 0.05953867
42 Reciever/Unit2/n35:42 0.05953867
43 Reciever/Unit2/n35:43 0.06302194
44 Reciever/Unit2/n35:44 0.07935341
45 Reciever/Unit2/n35:45 0.01539194
46 Reciever/Unit2/n35:46 0.2630312
47 Reciever/Unit2/n35:47 0.0128162
48 Reciever/Unit2/n35:48 0.01424887
49 Reciever/Unit2/n35:49 0.3517885
50 Reciever/Unit2/n35:50 0.3015612
51 Reciever/Unit2/n35:51 0.1047176
52 Reciever/Unit2/n35:52 0.1178632
53 Reciever/Unit2/n35:53 0.012206
54 Reciever/Unit2/n35:54 0.07637095
55 Reciever/Unit2/n35:55 0.07637095
56 Reciever/Unit2/n35:56 0.1108855
57 Reciever/Unit2/n35:57 0.1238697
58 Reciever/Unit2/n35:58 0.376874
59 Reciever/Unit2/n35:59 0.3742095
60 Reciever/Unit2/n35:60 0.01806721
61 Reciever/Unit2/n35:61 0.006314982

*RES
0 Reciever\/Unit2\/U67:Y Reciever/Unit2/n35:61 1
1 Reciever/Unit2/n35:13 Reciever/Unit2/n35:12 1.0375
2 Reciever/Unit2/n35:14 Reciever/Unit2/n35:13 0.5
3 Reciever/Unit2/n35:12 Reciever\/Unit2\/U35:A3 1
4 Reciever/Unit2/n35:51 Reciever/Unit2/n35:50 0.5
5 Reciever/Unit2/n35:50 Reciever/Unit2/n35:49 10.85714
6 Reciever/Unit2/n35:50 Reciever/Unit2/n35:14 1.061607
7 Reciever/Unit2/n35:52 Reciever\/Unit2\/U66:A4 1
8 Reciever/Unit2/n35:52 Reciever/Unit2/n35:51 3.480357
9 Reciever/Unit2/n35:53 Reciever/Unit2/n35:52 0.255
10 Reciever/Unit2/n35:54 Reciever/Unit2/n35:53 0.5
11 Reciever/Unit2/n35:56 Reciever/Unit2/n35:55 0.5
12 Reciever/Unit2/n35:55 Reciever/Unit2/n35:54 3.751786
13 Reciever/Unit2/n35:61 Reciever/Unit2/n35:60 0.2473214
14 Reciever/Unit2/n35:48 Reciever/Unit2/n35:47 0.2325
15 Reciever/Unit2/n35:49 Reciever/Unit2/n35:48 0.5
16 Reciever/Unit2/n35:49 Reciever/Unit2/n35:46 3.257143
17 Reciever/Unit2/n35:47 Reciever\/Unit2\/U54:A4 1
18 Reciever/Unit2/n35:44 Reciever\/Unit2\/U52:A4 1
19 Reciever/Unit2/n35:44 Reciever/Unit2/n35:43 1.851786
20 Reciever/Unit2/n35:45 Reciever/Unit2/n35:44 0.255
21 Reciever/Unit2/n35:46 Reciever/Unit2/n35:45 0.5
22 Reciever/Unit2/n35:46 Reciever/Unit2/n35:38 7.6
23 Reciever/Unit2/n35:43 Reciever/Unit2/n35:42 0.5
24 Reciever/Unit2/n35:42 Reciever/Unit2/n35:41 2.666071
25 Reciever/Unit2/n35:40 Reciever/Unit2/n35:39 0.2325
26 Reciever/Unit2/n35:41 Reciever/Unit2/n35:40 0.5
27 Reciever/Unit2/n35:39 Reciever\/Unit2\/U60:A4 1
28 Reciever/Unit2/n35:37 Reciever/Unit2/n35:36 0.2325
29 Reciever/Unit2/n35:38 Reciever/Unit2/n35:37 0.5
30 Reciever/Unit2/n35:38 Reciever/Unit2/n35:35 3.8
31 Reciever/Unit2/n35:36 Reciever\/Unit2\/U37:A4 1
32 Reciever/Unit2/n35:34 Reciever/Unit2/n35:33 0.2325
33 Reciever/Unit2/n35:35 Reciever/Unit2/n35:34 0.5
34 Reciever/Unit2/n35:35 Reciever/Unit2/n35:32 2.147322
35 Reciever/Unit2/n35:33 Reciever\/Unit2\/U43:A4 1
36 Reciever/Unit2/n35:25 Reciever\/Unit2\/U46:A4 1
37 Reciever/Unit2/n35:25 Reciever/Unit2/n35:24 4.069643
38 Reciever/Unit2/n35:24 Reciever/Unit2/n35:23 0.5
39 Reciever/Unit2/n35:24 Reciever/Unit2/n35:19 5.404465
40 Reciever/Unit2/n35:23 Reciever/Unit2/n35:22 1.308929
41 Reciever/Unit2/n35:21 Reciever/Unit2/n35:20 0.2325
42 Reciever/Unit2/n35:22 Reciever/Unit2/n35:21 0.5
43 Reciever/Unit2/n35:20 Reciever\/Unit2\/U57:A4 1
44 Reciever/Unit2/n35:31 Reciever/Unit2/n35:30 3.504464
45 Reciever/Unit2/n35:32 Reciever/Unit2/n35:31 0.5
46 Reciever/Unit2/n35:30 Reciever\/Unit2\/U49:A4 1
47 Reciever/Unit2/n35:30 Reciever/Unit2/n35:29 7.847322
48 Reciever/Unit2/n35:26 Reciever/Unit2/n35:25 0.2341667
49 Reciever/Unit2/n35:27 Reciever/Unit2/n35:26 0.5
50 Reciever/Unit2/n35:29 Reciever/Unit2/n35:28 0.5
51 Reciever/Unit2/n35:28 Reciever/Unit2/n35:27 0.4946429
52 Reciever/Unit2/n35:19 Reciever/Unit2/n35:18 0.5
53 Reciever/Unit2/n35:18 Reciever/Unit2/n35:17 5.380358
54 Reciever/Unit2/n35:16 Reciever/Unit2/n35:15 0.2325
55 Reciever/Unit2/n35:17 Reciever/Unit2/n35:16 0.5
56 Reciever/Unit2/n35:15 Reciever\/Unit2\/U39:A4 1
57 Reciever/Unit2/n35:60 Reciever/Unit2/n35:59 0.2714286
58 Reciever/Unit2/n35:59 Reciever/Unit2/n35:58 9.771429
59 Reciever/Unit2/n35:58 Reciever/Unit2/n35:57 0.2714286
60 Reciever/Unit2/n35:57 Reciever/Unit2/n35:56 3.775893

*END

*D_NET Reciever/Unit2/n36 0.9063265 //LENGTH 11.174 LUMPCC 0 DR

*CONN
*I Reciever\/Unit2\/U36:Y O *L 0 *C 12.612 13.372
*I Reciever\/Unit2\/U35:A4 I *L 0.545401 *C 20.516 14.740
*I Reciever\/Unit2\/U24:A I *L 0.577904 *C 18.996 14.588
*N Reciever/Unit2/n36:3 *C 12.612 13.190
*N Reciever/Unit2/n36:4 *C 18.996 14.602
*N Reciever/Unit2/n36:5 *C 18.996 14.892
*N Reciever/Unit2/n36:6 *C 20.516 14.740
*N Reciever/Unit2/n36:7 *C 20.516 14.880
*N Reciever/Unit2/n36:8 *C 20.503 14.892
*N Reciever/Unit2/n36:9 *C 19.466 14.892
*N Reciever/Unit2/n36:10 *C 19.452 14.879
*N Reciever/Unit2/n36:11 *C 19.452 13.386
*N Reciever/Unit2/n36:12 *C 19.439 13.372
*N Reciever/Unit2/n36:13 *C 12.626 13.372
*N Reciever/Unit2/n36:14 *C 12.612 13.360

*CAP
0 Reciever\/Unit2\/U36:Y 0.001
1 Reciever\/Unit2\/U35:A4 0.001
2 Reciever\/Unit2\/U24:A 0.001
3 Reciever/Unit2/n36:3 0.01317487
4 Reciever/Unit2/n36:4 0.01503572
5 Reciever/Unit2/n36:5 0.04125266
6 Reciever/Unit2/n36:6 0.01559526
7 Reciever/Unit2/n36:7 0.01702794
8 Reciever/Unit2/n36:8 0.04695252
9 Reciever/Unit2/n36:9 0.04695252
10 Reciever/Unit2/n36:10 0.09839833
11 Reciever/Unit2/n36:11 0.07598628
12 Reciever/Unit2/n36:12 0.2629763
13 Reciever/Unit2/n36:13 0.2629763
14 Reciever/Unit2/n36:14 0.006997752

*RES
0 Reciever\/Unit2\/U36:Y Reciever/Unit2/n36:14 1
1 Reciever/Unit2/n36:10 Reciever/Unit2/n36:9 0.5
2 Reciever/Unit2/n36:10 Reciever/Unit2/n36:5 0.8142857
3 Reciever/Unit2/n36:9 Reciever/Unit2/n36:8 1.851786
4 Reciever/Unit2/n36:7 Reciever/Unit2/n36:6 0.2325
5 Reciever/Unit2/n36:8 Reciever/Unit2/n36:7 0.5
6 Reciever/Unit2/n36:6 Reciever\/Unit2\/U35:A4 1
7 Reciever/Unit2/n36:4 Reciever\/Unit2\/U24:A 1
8 Reciever/Unit2/n36:11 Reciever/Unit2/n36:10 2.666072
9 Reciever/Unit2/n36:12 Reciever/Unit2/n36:11 0.5
10 Reciever/Unit2/n36:14 Reciever/Unit2/n36:13 0.5
11 Reciever/Unit2/n36:14 Reciever/Unit2/n36:3 0.2825
12 Reciever/Unit2/n36:13 Reciever/Unit2/n36:12 12.16607
13 Reciever/Unit2/n36:5 Reciever/Unit2/n36:4 0.5187501

*END

*D_NET Reciever/Unit2/n37 1.151082 //LENGTH 11.537 LUMPCC 0 DR

*CONN
*I Reciever\/Unit2\/U42:Y O *L 0 *C 12.916 7.900
*I Reciever\/Unit2\/U41:A1 I *L 0.608353 *C 9.876 7.900
*I Reciever\/Unit2\/U38:A1 I *L 0.492533 *C 10.332 11.092
*I Reciever\/Unit2\/U36:A1 I *L 0.492533 *C 12.004 12.916
*N Reciever/Unit2/n37:4 *C 12.004 12.902
*N Reciever/Unit2/n37:5 *C 12.004 12.474
*N Reciever/Unit2/n37:6 *C 11.991 12.460
*N Reciever/Unit2/n37:7 *C 10.346 12.460
*N Reciever/Unit2/n37:8 *C 10.332 12.447
*N Reciever/Unit2/n37:9 *C 10.332 11.092
*N Reciever/Unit2/n37:10 *C 10.332 9.130
*N Reciever/Unit2/n37:11 *C 10.319 9.116
*N Reciever/Unit2/n37:12 *C 9.889 9.116
*N Reciever/Unit2/n37:13 *C 9.876 9.103
*N Reciever/Unit2/n37:14 *C 9.876 7.901
*N Reciever/Unit2/n37:15 *C 9.876 8.508
*N Reciever/Unit2/n37:16 *C 9.889 8.508
*N Reciever/Unit2/n37:17 *C 12.902 8.508
*N Reciever/Unit2/n37:18 *C 12.916 8.495
*N Reciever/Unit2/n37:19 *C 12.916 7.913

*CAP
0 Reciever\/Unit2\/U42:Y 0.001
1 Reciever\/Unit2\/U41:A1 0.001
2 Reciever\/Unit2\/U38:A1 0.001
3 Reciever\/Unit2\/U36:A1 0.001
4 Reciever/Unit2/n37:4 0.02715876
5 Reciever/Unit2/n37:5 0.02859144
6 Reciever/Unit2/n37:6 0.07205949
7 Reciever/Unit2/n37:7 0.07205949
8 Reciever/Unit2/n37:8 0.08428565
9 Reciever/Unit2/n37:9 0.2154461
10 Reciever/Unit2/n37:10 0.1302209
11 Reciever/Unit2/n37:11 0.02284557
12 Reciever/Unit2/n37:12 0.02284557
13 Reciever/Unit2/n37:13 0.04009209
14 Reciever/Unit2/n37:14 0.03759322
15 Reciever/Unit2/n37:15 0.08149022
16 Reciever/Unit2/n37:16 0.1302244
17 Reciever/Unit2/n37:17 0.1302244
18 Reciever/Unit2/n37:18 0.02668865
19 Reciever/Unit2/n37:19 0.02525597

*RES
0 Reciever\/Unit2\/U42:Y Reciever/Unit2/n37:19 1
1 Reciever/Unit2/n37:8 Reciever/Unit2/n37:7 0.5
2 Reciever/Unit2/n37:7 Reciever/Unit2/n37:6 2.9375
3 Reciever/Unit2/n37:5 Reciever/Unit2/n37:4 0.7660714
4 Reciever/Unit2/n37:6 Reciever/Unit2/n37:5 0.5
5 Reciever/Unit2/n37:4 Reciever\/Unit2\/U36:A1 1
6 Reciever/Unit2/n37:9 Reciever\/Unit2\/U38:A1 1
7 Reciever/Unit2/n37:9 Reciever/Unit2/n37:8 2.41875
8 Reciever/Unit2/n37:10 Reciever/Unit2/n37:9 3.504464
9 Reciever/Unit2/n37:11 Reciever/Unit2/n37:10 0.5
10 Reciever/Unit2/n37:13 Reciever/Unit2/n37:12 0.5
11 Reciever/Unit2/n37:12 Reciever/Unit2/n37:11 0.7660714
12 Reciever/Unit2/n37:15 Reciever/Unit2/n37:14 1.083929
13 Reciever/Unit2/n37:15 Reciever/Unit2/n37:13 1.061607
14 Reciever/Unit2/n37:16 Reciever/Unit2/n37:15 0.5
15 Reciever/Unit2/n37:18 Reciever/Unit2/n37:17 0.5
16 Reciever/Unit2/n37:17 Reciever/Unit2/n37:16 5.380358
17 Reciever/Unit2/n37:19 Reciever/Unit2/n37:18 1.0375
18 Reciever/Unit2/n37:14 Reciever\/Unit2\/U41:A1 1

*END

*D_NET Reciever/Unit2/n38 2.502582 //LENGTH 26.543 LUMPCC 0 DR

*CONN
*I Reciever\/Unit2\/U22:Y O *L 0 *C 8.854 4.569
*I Reciever\/Unit2\/U48:A1 I *L 0.608353 *C 8.052 7.900
*I Reciever\/Unit2\/U45:A1 I *L 0.608353 *C 7.140 11.244
*I Reciever\/Unit2\/U56:A2 I *L 0.546428 *C 11.852 11.092
*I Reciever\/Unit2\/U36:A2 I *L 0.447801 *C 11.700 12.764
*I Reciever\/Unit2\/U19:A I *L 0.577904 *C 8.204 9.420
*I Reciever\/Unit2\/U71:A4 I *L 0.545401 *C 14.436 2.580
*N Reciever/Unit2/n38:7 *C 8.630 3.340
*N Reciever/Unit2/n38:8 *C 8.812 3.158
*N Reciever/Unit2/n38:9 *C 14.588 3.158
*N Reciever/Unit2/n38:10 *C 14.436 2.594
*N Reciever/Unit2/n38:11 *C 14.436 3.327
*N Reciever/Unit2/n38:12 *C 14.436 3.340
*N Reciever/Unit2/n38:13 *C 14.575 3.340
*N Reciever/Unit2/n38:14 *C 14.588 3.328
*N Reciever/Unit2/n38:15 *C 14.575 3.340
*N Reciever/Unit2/n38:16 *C 8.825 3.340
*N Reciever/Unit2/n38:17 *C 8.812 3.328
*N Reciever/Unit2/n38:18 *C 8.800 3.340
*N Reciever/Unit2/n38:19 *C 8.812 3.354
*N Reciever/Unit2/n38:20 *C 8.204 9.407
*N Reciever/Unit2/n38:21 *C 8.204 8.812
*N Reciever/Unit2/n38:22 *C 11.700 12.751
*N Reciever/Unit2/n38:23 *C 11.852 11.106
*N Reciever/Unit2/n38:24 *C 11.852 11.852
*N Reciever/Unit2/n38:25 *C 11.700 11.852
*N Reciever/Unit2/n38:26 *C 11.687 11.852
*N Reciever/Unit2/n38:27 *C 7.154 11.852
*N Reciever/Unit2/n38:28 *C 7.140 11.838
*N Reciever/Unit2/n38:29 *C 7.140 11.244
*N Reciever/Unit2/n38:30 *C 7.140 8.825
*N Reciever/Unit2/n38:31 *C 7.154 8.812
*N Reciever/Unit2/n38:32 *C 8.039 8.812
*N Reciever/Unit2/n38:33 *C 8.052 8.812
*N Reciever/Unit2/n38:34 *C 8.052 7.900
*N Reciever/Unit2/n38:35 *C 8.052 4.266
*N Reciever/Unit2/n38:36 *C 8.066 4.252
*N Reciever/Unit2/n38:37 *C 8.799 4.252
*N Reciever/Unit2/n38:38 *C 8.812 4.252
*N Reciever/Unit2/n38:39 *C 8.812 4.543
*N Reciever/Unit2/n38:40 *C 8.812 4.556

*CAP
0 Reciever\/Unit2\/U22:Y 0.00906451
1 Reciever\/Unit2\/U48:A1 0.001
2 Reciever\/Unit2\/U45:A1 0.001
3 Reciever\/Unit2\/U56:A2 0.001
4 Reciever\/Unit2\/U36:A2 0.001
5 Reciever\/Unit2\/U19:A 0.001
6 Reciever\/Unit2\/U71:A4 0.001
7 Reciever/Unit2/n38:7 0.01423622
8 Reciever/Unit2/n38:8 0.01100377
9 Reciever/Unit2/n38:9 0.01071883
10 Reciever/Unit2/n38:10 0.04351145
11 Reciever/Unit2/n38:11 0.04494413
12 Reciever/Unit2/n38:12 0.01074326
13 Reciever/Unit2/n38:13 0.01074381
14 Reciever/Unit2/n38:14 0.005976008
15 Reciever/Unit2/n38:15 0.199323
16 Reciever/Unit2/n38:16 0.199323
17 Reciever/Unit2/n38:17 0.006260955
18 Reciever/Unit2/n38:18 0.009492327
19 Reciever/Unit2/n38:19 0.04368863
20 Reciever/Unit2/n38:20 0.03176101
21 Reciever/Unit2/n38:21 0.04392364
22 Reciever/Unit2/n38:22 0.04562023
23 Reciever/Unit2/n38:23 0.05103216
24 Reciever/Unit2/n38:24 0.0633956
25 Reciever/Unit2/n38:25 0.05561145
26 Reciever/Unit2/n38:26 0.214642
27 Reciever/Unit2/n38:27 0.214642
28 Reciever/Unit2/n38:28 0.03646525
29 Reciever/Unit2/n38:29 0.1964512
30 Reciever/Unit2/n38:30 0.1590464
31 Reciever/Unit2/n38:31 0.03581752
32 Reciever/Unit2/n38:32 0.03581752
33 Reciever/Unit2/n38:33 0.06152401
34 Reciever/Unit2/n38:34 0.2703578
35 Reciever/Unit2/n38:35 0.216252
36 Reciever/Unit2/n38:36 0.03143765
37 Reciever/Unit2/n38:37 0.03143765
38 Reciever/Unit2/n38:38 0.06054572
39 Reciever/Unit2/n38:39 0.01478169
40 Reciever/Unit2/n38:40 0.006989113

*RES
0 Reciever\/Unit2\/U22:Y Reciever/Unit2/n38:40 0.09166668
1 Reciever/Unit2/n38:23 Reciever\/Unit2\/U56:A2 1
2 Reciever/Unit2/n38:22 Reciever\/Unit2\/U36:A2 1
3 Reciever/Unit2/n38:40 Reciever/Unit2/n38:39 1
4 Reciever/Unit2/n38:39 Reciever/Unit2/n38:38 0.5187501
5 Reciever/Unit2/n38:19 Reciever/Unit2/n38:18 0.5
6 Reciever/Unit2/n38:18 Reciever/Unit2/n38:17 0.5
7 Reciever/Unit2/n38:18 Reciever/Unit2/n38:7 0.2825
8 Reciever/Unit2/n38:17 Reciever/Unit2/n38:16 0.5
9 Reciever/Unit2/n38:17 Reciever/Unit2/n38:8 0.2825
10 Reciever/Unit2/n38:16 Reciever/Unit2/n38:15 10.26607
11 Reciever/Unit2/n38:14 Reciever/Unit2/n38:13 0.5
12 Reciever/Unit2/n38:14 Reciever/Unit2/n38:9 0.2825
13 Reciever/Unit2/n38:15 Reciever/Unit2/n38:14 0.5
14 Reciever/Unit2/n38:13 Reciever/Unit2/n38:12 0.2325
15 Reciever/Unit2/n38:11 Reciever/Unit2/n38:10 1.308928
16 Reciever/Unit2/n38:12 Reciever/Unit2/n38:11 0.5
17 Reciever/Unit2/n38:10 Reciever\/Unit2\/U71:A4 1
18 Reciever/Unit2/n38:20 Reciever\/Unit2\/U19:A 1
19 Reciever/Unit2/n38:34 Reciever\/Unit2\/U48:A1 1
20 Reciever/Unit2/n38:34 Reciever/Unit2/n38:33 1.628572
21 Reciever/Unit2/n38:38 Reciever/Unit2/n38:37 0.5
22 Reciever/Unit2/n38:38 Reciever/Unit2/n38:19 1.604465
23 Reciever/Unit2/n38:37 Reciever/Unit2/n38:36 1.308929
24 Reciever/Unit2/n38:35 Reciever/Unit2/n38:34 6.490179
25 Reciever/Unit2/n38:36 Reciever/Unit2/n38:35 0.5
26 Reciever/Unit2/n38:25 Reciever/Unit2/n38:24 0.2714286
27 Reciever/Unit2/n38:25 Reciever/Unit2/n38:22 1.604465
28 Reciever/Unit2/n38:26 Reciever/Unit2/n38:25 0.5
29 Reciever/Unit2/n38:28 Reciever/Unit2/n38:27 0.5
30 Reciever/Unit2/n38:27 Reciever/Unit2/n38:26 8.094644
31 Reciever/Unit2/n38:29 Reciever\/Unit2\/U45:A1 1
32 Reciever/Unit2/n38:29 Reciever/Unit2/n38:28 1.061607
33 Reciever/Unit2/n38:33 Reciever/Unit2/n38:32 0.5
34 Reciever/Unit2/n38:33 Reciever/Unit2/n38:21 0.2714286
35 Reciever/Unit2/n38:32 Reciever/Unit2/n38:31 1.580357
36 Reciever/Unit2/n38:30 Reciever/Unit2/n38:29 4.31875
37 Reciever/Unit2/n38:31 Reciever/Unit2/n38:30 0.5
38 Reciever/Unit2/n38:21 Reciever/Unit2/n38:20 1.061607
39 Reciever/Unit2/n38:24 Reciever/Unit2/n38:23 1.333036

*END

*D_NET Reciever/Unit2/n39 0.6304197 //LENGTH 6.782 LUMPCC 0 DR

*CONN
*I Reciever\/Unit2\/U38:Y O *L 0 *C 9.724 10.940
*I Reciever\/Unit2\/U33:A I *L 0.577904 *C 8.964 12.764
*I Reciever\/Unit2\/U37:A3 I *L 0.535173 *C 7.748 15.196
*N Reciever/Unit2/n39:3 *C 7.748 15.183
*N Reciever/Unit2/n39:4 *C 7.748 13.690
*N Reciever/Unit2/n39:5 *C 7.762 13.676
*N Reciever/Unit2/n39:6 *C 8.950 13.676
*N Reciever/Unit2/n39:7 *C 8.964 13.663
*N Reciever/Unit2/n39:8 *C 8.964 12.777
*N Reciever/Unit2/n39:9 *C 8.978 12.764
*N Reciever/Unit2/n39:10 *C 9.710 12.764
*N Reciever/Unit2/n39:11 *C 9.724 12.751
*N Reciever/Unit2/n39:12 *C 9.724 10.954

*CAP
0 Reciever\/Unit2\/U38:Y 0.001
1 Reciever\/Unit2\/U33:A 0.001
2 Reciever\/Unit2\/U37:A3 0.001
3 Reciever/Unit2/n39:3 0.07653864
4 Reciever/Unit2/n39:4 0.07797132
5 Reciever/Unit2/n39:5 0.0556553
6 Reciever/Unit2/n39:6 0.0556553
7 Reciever/Unit2/n39:7 0.05314809
8 Reciever/Unit2/n39:8 0.04934319
9 Reciever/Unit2/n39:9 0.0393124
10 Reciever/Unit2/n39:10 0.0393124
11 Reciever/Unit2/n39:11 0.0909579
12 Reciever/Unit2/n39:12 0.08952522

*RES
0 Reciever\/Unit2\/U38:Y Reciever/Unit2/n39:12 1
1 Reciever/Unit2/n39:8 Reciever\/Unit2\/U33:A 1
2 Reciever/Unit2/n39:8 Reciever/Unit2/n39:7 1.580357
3 Reciever/Unit2/n39:9 Reciever/Unit2/n39:8 0.5
4 Reciever/Unit2/n39:11 Reciever/Unit2/n39:10 0.5
5 Reciever/Unit2/n39:10 Reciever/Unit2/n39:9 1.308929
6 Reciever/Unit2/n39:12 Reciever/Unit2/n39:11 3.208929
7 Reciever/Unit2/n39:7 Reciever/Unit2/n39:6 0.5
8 Reciever/Unit2/n39:6 Reciever/Unit2/n39:5 2.123214
9 Reciever/Unit2/n39:4 Reciever/Unit2/n39:3 2.666072
10 Reciever/Unit2/n39:5 Reciever/Unit2/n39:4 0.5
11 Reciever/Unit2/n39:3 Reciever\/Unit2\/U37:A3 1

*END

*D_NET Reciever/Unit2/n40 0.9243829 //LENGTH 11.232 LUMPCC 0 DR

*CONN
*I Reciever\/Unit2\/U40:Y O *L 0 *C 6.836 7.140
*I Reciever\/Unit2\/U25:A I *L 0.577904 *C 2.428 4.556
*I Reciever\/Unit2\/U39:A3 I *L 0.535173 *C 1.668 2.124
*N Reciever/Unit2/n40:3 *C 1.668 2.138
*N Reciever/Unit2/n40:4 *C 1.668 5.151
*N Reciever/Unit2/n40:5 *C 1.681 5.164
*N Reciever/Unit2/n40:6 *C 2.428 4.570
*N Reciever/Unit2/n40:7 *C 2.428 5.151
*N Reciever/Unit2/n40:8 *C 2.428 5.164
*N Reciever/Unit2/n40:9 *C 6.823 5.164
*N Reciever/Unit2/n40:10 *C 6.836 5.178
*N Reciever/Unit2/n40:11 *C 6.836 7.127

*CAP
0 Reciever\/Unit2\/U40:Y 0.001
1 Reciever\/Unit2\/U25:A 0.001
2 Reciever\/Unit2\/U39:A3 0.001
3 Reciever/Unit2/n40:3 0.1479042
4 Reciever/Unit2/n40:4 0.1493369
5 Reciever/Unit2/n40:5 0.02597988
6 Reciever/Unit2/n40:6 0.02980141
7 Reciever/Unit2/n40:7 0.03123409
8 Reciever/Unit2/n40:8 0.1949332
9 Reciever/Unit2/n40:9 0.1665811
10 Reciever/Unit2/n40:10 0.08810731
11 Reciever/Unit2/n40:11 0.08750479

*RES
0 Reciever\/Unit2\/U40:Y Reciever/Unit2/n40:11 1
1 Reciever/Unit2/n40:10 Reciever/Unit2/n40:9 0.5
2 Reciever/Unit2/n40:9 Reciever/Unit2/n40:8 7.847322
3 Reciever/Unit2/n40:11 Reciever/Unit2/n40:10 3.480357
4 Reciever/Unit2/n40:7 Reciever/Unit2/n40:6 1.0375
5 Reciever/Unit2/n40:8 Reciever/Unit2/n40:7 0.5
6 Reciever/Unit2/n40:8 Reciever/Unit2/n40:5 1.333036
7 Reciever/Unit2/n40:6 Reciever\/Unit2\/U25:A 1
8 Reciever/Unit2/n40:4 Reciever/Unit2/n40:3 5.380357
9 Reciever/Unit2/n40:5 Reciever/Unit2/n40:4 0.5
10 Reciever/Unit2/n40:3 Reciever\/Unit2\/U39:A3 1

*END

*D_NET Reciever/Unit2/n41 2.601946 //LENGTH 29.202 LUMPCC 0 DR

*CONN
*I Reciever\/Unit2\/U69:Y O *L 0 *C 18.388 10.180
*I Reciever\/Unit2\/U55:A1 I *L 0.545591 *C 12.764 10.940
*I Reciever\/Unit2\/U61:A1 I *L 0.545591 *C 8.052 13.068
*I Reciever\/Unit2\/U5:A I *L 0.577904 *C 9.268 14.588
*I Reciever\/Unit2\/U44:A1 I *L 0.545591 *C 5.924 13.068
*I Reciever\/Unit2\/U50:A1 I *L 0.545591 *C 6.076 10.940
*I Reciever\/Unit2\/U47:A1 I *L 0.545591 *C 6.076 7.596
*I Reciever\/Unit2\/U40:A1 I *L 0.545591 *C 6.988 7.596
*I Reciever\/Unit2\/U68:A2 I *L 0.46235 *C 20.516 11.244
*N Reciever/Unit2/n41:9 *C 20.516 11.243
*N Reciever/Unit2/n41:10 *C 20.516 10.954
*N Reciever/Unit2/n41:11 *C 20.503 10.940
*N Reciever/Unit2/n41:12 *C 6.988 7.464
*N Reciever/Unit2/n41:13 *C 6.988 7.584
*N Reciever/Unit2/n41:14 *C 6.974 7.596
*N Reciever/Unit2/n41:15 *C 6.090 7.596
*N Reciever/Unit2/n41:16 *C 6.076 7.610
*N Reciever/Unit2/n41:17 *C 6.076 10.927
*N Reciever/Unit2/n41:18 *C 6.090 10.940
*N Reciever/Unit2/n41:19 *C 5.924 13.067
*N Reciever/Unit2/n41:20 *C 5.924 12.460
*N Reciever/Unit2/n41:21 *C 9.268 14.575
*N Reciever/Unit2/n41:22 *C 9.268 12.474
*N Reciever/Unit2/n41:23 *C 9.255 12.460
*N Reciever/Unit2/n41:24 *C 8.052 13.067
*N Reciever/Unit2/n41:25 *C 8.052 12.474
*N Reciever/Unit2/n41:26 *C 8.052 12.460
*N Reciever/Unit2/n41:27 *C 6.394 12.460
*N Reciever/Unit2/n41:28 *C 6.380 12.447
*N Reciever/Unit2/n41:29 *C 6.380 10.954
*N Reciever/Unit2/n41:30 *C 6.380 10.940
*N Reciever/Unit2/n41:31 *C 12.764 10.808
*N Reciever/Unit2/n41:32 *C 12.764 10.928
*N Reciever/Unit2/n41:33 *C 12.764 10.940
*N Reciever/Unit2/n41:34 *C 18.388 10.940
*N Reciever/Unit2/n41:35 *C 18.388 10.927
*N Reciever/Unit2/n41:36 *C 18.388 10.194

*CAP
0 Reciever\/Unit2\/U69:Y 0.001
1 Reciever\/Unit2\/U55:A1 0.001
2 Reciever\/Unit2\/U61:A1 0.001
3 Reciever\/Unit2\/U5:A 0.001
4 Reciever\/Unit2\/U44:A1 0.001
5 Reciever\/Unit2\/U50:A1 0.001
6 Reciever\/Unit2\/U47:A1 0.001
7 Reciever\/Unit2\/U40:A1 0.001
8 Reciever\/Unit2\/U68:A2 0.001
9 Reciever/Unit2/n41:9 0.01543824
10 Reciever/Unit2/n41:10 0.01669797
11 Reciever/Unit2/n41:11 0.08979474
12 Reciever/Unit2/n41:12 0.01338006
13 Reciever/Unit2/n41:13 0.005226098
14 Reciever/Unit2/n41:14 0.03526656
15 Reciever/Unit2/n41:15 0.03526656
16 Reciever/Unit2/n41:16 0.1832192
17 Reciever/Unit2/n41:17 0.1832192
18 Reciever/Unit2/n41:18 0.01073171
19 Reciever/Unit2/n41:19 0.03025999
20 Reciever/Unit2/n41:20 0.05594996
21 Reciever/Unit2/n41:21 0.1268948
22 Reciever/Unit2/n41:22 0.1283275
23 Reciever/Unit2/n41:23 0.05119724
24 Reciever/Unit2/n41:24 0.03085757
25 Reciever/Unit2/n41:25 0.03229025
26 Reciever/Unit2/n41:26 0.1145033
27 Reciever/Unit2/n41:27 0.06093385
28 Reciever/Unit2/n41:28 0.09366896
29 Reciever/Unit2/n41:29 0.07178389
30 Reciever/Unit2/n41:30 0.2787167
31 Reciever/Unit2/n41:31 0.01170317
32 Reciever/Unit2/n41:32 0.00354921
33 Reciever/Unit2/n41:33 0.4908325
34 Reciever/Unit2/n41:34 0.3189682
35 Reciever/Unit2/n41:35 0.05243564
36 Reciever/Unit2/n41:36 0.05183312

*RES
0 Reciever\/Unit2\/U69:Y Reciever/Unit2/n41:36 1
1 Reciever/Unit2/n41:10 Reciever/Unit2/n41:9 0.5169643
2 Reciever/Unit2/n41:11 Reciever/Unit2/n41:10 0.5
3 Reciever/Unit2/n41:9 Reciever\/Unit2\/U68:A2 1
4 Reciever/Unit2/n41:35 Reciever/Unit2/n41:34 0.5
5 Reciever/Unit2/n41:34 Reciever/Unit2/n41:33 10.04286
6 Reciever/Unit2/n41:34 Reciever/Unit2/n41:11 3.775893
7 Reciever/Unit2/n41:36 Reciever/Unit2/n41:35 1.308929
8 Reciever/Unit2/n41:32 Reciever\/Unit2\/U55:A1 1
9 Reciever/Unit2/n41:32 Reciever/Unit2/n41:31 0.1991667
10 Reciever/Unit2/n41:33 Reciever/Unit2/n41:32 0.5
11 Reciever/Unit2/n41:33 Reciever/Unit2/n41:30 11.4
12 Reciever/Unit2/n41:22 Reciever/Unit2/n41:21 3.751786
13 Reciever/Unit2/n41:23 Reciever/Unit2/n41:22 0.5
14 Reciever/Unit2/n41:21 Reciever\/Unit2\/U5:A 1
15 Reciever/Unit2/n41:25 Reciever/Unit2/n41:24 1.059822
16 Reciever/Unit2/n41:26 Reciever/Unit2/n41:25 0.5
17 Reciever/Unit2/n41:26 Reciever/Unit2/n41:23 2.147322
18 Reciever/Unit2/n41:24 Reciever\/Unit2\/U61:A1 1
19 Reciever/Unit2/n41:28 Reciever/Unit2/n41:27 0.5
20 Reciever/Unit2/n41:28 Reciever/Unit2/n41:20 0.8142858
21 Reciever/Unit2/n41:27 Reciever/Unit2/n41:26 2.961607
22 Reciever/Unit2/n41:29 Reciever/Unit2/n41:28 2.666071
23 Reciever/Unit2/n41:30 Reciever/Unit2/n41:29 0.5
24 Reciever/Unit2/n41:30 Reciever/Unit2/n41:18 0.5187501
25 Reciever/Unit2/n41:17 Reciever\/Unit2\/U50:A1 1
26 Reciever/Unit2/n41:17 Reciever/Unit2/n41:16 5.923214
27 Reciever/Unit2/n41:18 Reciever/Unit2/n41:17 0.5
28 Reciever/Unit2/n41:16 Reciever\/Unit2\/U47:A1 1
29 Reciever/Unit2/n41:16 Reciever/Unit2/n41:15 0.5
30 Reciever/Unit2/n41:15 Reciever/Unit2/n41:14 1.580357
31 Reciever/Unit2/n41:13 Reciever\/Unit2\/U40:A1 1
32 Reciever/Unit2/n41:13 Reciever/Unit2/n41:12 0.1991667
33 Reciever/Unit2/n41:14 Reciever/Unit2/n41:13 0.5
34 Reciever/Unit2/n41:19 Reciever\/Unit2\/U44:A1 1
35 Reciever/Unit2/n41:20 Reciever/Unit2/n41:19 1.083929

*END

*D_NET Reciever/Unit2/n42 0.3161374 //LENGTH 3.557 LUMPCC 0 DR

*CONN
*I Reciever\/Unit2\/U41:Y O *L 0 *C 9.876 8.204
*I Reciever\/Unit2\/U40:A2 I *L 0.46235 *C 7.140 7.900
*N Reciever/Unit2/n42:2 *C 9.724 8.386
*N Reciever/Unit2/n42:3 *C 7.140 7.913
*N Reciever/Unit2/n42:4 *C 7.140 8.191
*N Reciever/Unit2/n42:5 *C 7.154 8.204
*N Reciever/Unit2/n42:6 *C 9.710 8.204
*N Reciever/Unit2/n42:7 *C 9.724 8.216
*N Reciever/Unit2/n42:8 *C 9.739 8.204

*CAP
0 Reciever\/Unit2\/U41:Y 0.01381977
1 Reciever\/Unit2\/U40:A2 0.001
2 Reciever/Unit2/n42:2 0.02005463
3 Reciever/Unit2/n42:3 0.01955853
4 Reciever/Unit2/n42:4 0.02099121
5 Reciever/Unit2/n42:5 0.1066809
6 Reciever/Unit2/n42:6 0.1066809
7 Reciever/Unit2/n42:7 0.01560702
8 Reciever/Unit2/n42:8 0.01174437

*RES
0 Reciever\/Unit2\/U41:Y Reciever/Unit2/n42:8 0.274
1 Reciever/Unit2/n42:3 Reciever\/Unit2\/U40:A2 1
2 Reciever/Unit2/n42:4 Reciever/Unit2/n42:3 0.4946429
3 Reciever/Unit2/n42:5 Reciever/Unit2/n42:4 0.5
4 Reciever/Unit2/n42:7 Reciever/Unit2/n42:6 0.5
5 Reciever/Unit2/n42:7 Reciever/Unit2/n42:2 0.2825
6 Reciever/Unit2/n42:6 Reciever/Unit2/n42:5 4.566072
7 Reciever/Unit2/n42:8 Reciever/Unit2/n42:7 1

*END

*D_NET Reciever/Unit2/n43 1.270964 //LENGTH 14.526 LUMPCC 0 DR

*CONN
*I Reciever\/Unit2\/U23:Y O *L 0 *C 11.077 6.246
*I Reciever\/Unit2\/U58:A2 I *L 0.447801 *C 10.180 6.076
*I Reciever\/Unit2\/U21:A I *L 0.577904 *C 10.332 4.556
*I Reciever\/Unit2\/U42:A1 I *L 0.531407 *C 13.524 7.900
*I Reciever\/Unit2\/U56:A1 I *L 0.608353 *C 12.004 11.244
*I Reciever\/Unit2\/U62:A1 I *L 0.608353 *C 8.812 11.244
*N Reciever/Unit2/n43:6 *C 8.812 11.112
*N Reciever/Unit2/n43:7 *C 8.812 11.232
*N Reciever/Unit2/n43:8 *C 8.825 11.244
*N Reciever/Unit2/n43:9 *C 12.003 11.244
*N Reciever/Unit2/n43:10 *C 12.004 11.243
*N Reciever/Unit2/n43:11 *C 13.524 7.718
*N Reciever/Unit2/n43:12 *C 13.524 7.888
*N Reciever/Unit2/n43:13 *C 13.511 7.900
*N Reciever/Unit2/n43:14 *C 12.018 7.900
*N Reciever/Unit2/n43:15 *C 12.004 7.900
*N Reciever/Unit2/n43:16 *C 12.004 6.090
*N Reciever/Unit2/n43:17 *C 11.991 6.076
*N Reciever/Unit2/n43:18 *C 10.332 4.570
*N Reciever/Unit2/n43:19 *C 10.181 6.076
*N Reciever/Unit2/n43:20 *C 10.332 6.062
*N Reciever/Unit2/n43:21 *C 10.346 6.076
*N Reciever/Unit2/n43:22 *C 11.092 6.076
*N Reciever/Unit2/n43:23 *C 11.092 6.076
*N Reciever/Unit2/n43:24 *C 11.092 6.216
*N Reciever/Unit2/n43:25 *C 11.092 6.228

*CAP
0 Reciever\/Unit2\/U23:Y 0.009690396
1 Reciever\/Unit2\/U58:A2 0.001
2 Reciever\/Unit2\/U21:A 0.001
3 Reciever\/Unit2\/U42:A1 0.001
4 Reciever\/Unit2\/U56:A1 0.001
5 Reciever\/Unit2\/U62:A1 0.001
6 Reciever/Unit2/n43:6 0.01331844
7 Reciever/Unit2/n43:7 0.005164481
8 Reciever/Unit2/n43:8 0.1579191
9 Reciever/Unit2/n43:9 0.159896
10 Reciever/Unit2/n43:10 0.155167
11 Reciever/Unit2/n43:11 0.01362309
12 Reciever/Unit2/n43:12 0.007445977
13 Reciever/Unit2/n43:13 0.06017048
14 Reciever/Unit2/n43:14 0.06017048
15 Reciever/Unit2/n43:15 0.2358342
16 Reciever/Unit2/n43:16 0.07449006
17 Reciever/Unit2/n43:17 0.04031337
18 Reciever/Unit2/n43:18 0.06577894
19 Reciever/Unit2/n43:19 0.004421813
20 Reciever/Unit2/n43:20 0.07543833
21 Reciever/Unit2/n43:21 0.02862391
22 Reciever/Unit2/n43:22 0.0713095
23 Reciever/Unit2/n43:23 0.009638387
24 Reciever/Unit2/n43:24 0.009935208
25 Reciever/Unit2/n43:25 0.007614998

*RES
0 Reciever\/Unit2\/U23:Y Reciever/Unit2/n43:25 0.09166667
1 Reciever/Unit2/n43:10 Reciever\/Unit2\/U56:A1 1
2 Reciever/Unit2/n43:10 Reciever/Unit2/n43:9 0.5
3 Reciever/Unit2/n43:15 Reciever/Unit2/n43:14 0.5
4 Reciever/Unit2/n43:15 Reciever/Unit2/n43:10 5.969644
5 Reciever/Unit2/n43:14 Reciever/Unit2/n43:13 2.666071
6 Reciever/Unit2/n43:12 Reciever\/Unit2\/U42:A1 1
7 Reciever/Unit2/n43:12 Reciever/Unit2/n43:11 0.2825
8 Reciever/Unit2/n43:13 Reciever/Unit2/n43:12 0.5
9 Reciever/Unit2/n43:16 Reciever/Unit2/n43:15 3.233036
10 Reciever/Unit2/n43:17 Reciever/Unit2/n43:16 0.5
11 Reciever/Unit2/n43:23 Reciever/Unit2/n43:22 0.5
12 Reciever/Unit2/n43:22 Reciever/Unit2/n43:21 1.333036
13 Reciever/Unit2/n43:22 Reciever/Unit2/n43:17 1.604464
14 Reciever/Unit2/n43:25 Reciever/Unit2/n43:24 1
15 Reciever/Unit2/n43:24 Reciever/Unit2/n43:23 0.2325
16 Reciever/Unit2/n43:20 Reciever/Unit2/n43:19 0.2696429
17 Reciever/Unit2/n43:20 Reciever/Unit2/n43:18 2.666072
18 Reciever/Unit2/n43:21 Reciever/Unit2/n43:20 0.5
19 Reciever/Unit2/n43:18 Reciever\/Unit2\/U21:A 1
20 Reciever/Unit2/n43:19 Reciever\/Unit2\/U58:A2 1
21 Reciever/Unit2/n43:9 Reciever/Unit2/n43:8 5.674108
22 Reciever/Unit2/n43:7 Reciever\/Unit2\/U62:A1 1
23 Reciever/Unit2/n43:7 Reciever/Unit2/n43:6 0.1991667
24 Reciever/Unit2/n43:8 Reciever/Unit2/n43:7 0.5

*END

*D_NET Reciever/Unit2/n44 0.5227273 //LENGTH 6.452 LUMPCC 0 DR

*CONN
*I Reciever\/Unit2\/U90:Y O *L 0 *C 14.892 6.380
*I Reciever\/Unit2\/U89:A4 I *L 0.545401 *C 16.108 4.708
*I Reciever\/Unit2\/U42:A2 I *L 0.490862 *C 13.676 7.596
*I Reciever\/Unit2\/U20:A I *L 0.577904 *C 14.740 7.900
*N Reciever/Unit2/n44:4 *C 14.740 7.887
*N Reciever/Unit2/n44:5 *C 13.676 7.414
*N Reciever/Unit2/n44:6 *C 13.676 7.584
*N Reciever/Unit2/n44:7 *C 13.690 7.596
*N Reciever/Unit2/n44:8 *C 14.727 7.596
*N Reciever/Unit2/n44:9 *C 14.740 7.596
*N Reciever/Unit2/n44:10 *C 14.892 7.596
*N Reciever/Unit2/n44:11 *C 16.108 4.708
*N Reciever/Unit2/n44:12 *C 16.108 4.848
*N Reciever/Unit2/n44:13 *C 16.095 4.860
*N Reciever/Unit2/n44:14 *C 14.905 4.860
*N Reciever/Unit2/n44:15 *C 14.892 4.873
*N Reciever/Unit2/n44:16 *C 14.892 6.380

*CAP
0 Reciever\/Unit2\/U90:Y 0.001
1 Reciever\/Unit2\/U89:A4 0.001
2 Reciever\/Unit2\/U42:A2 0.001
3 Reciever\/Unit2\/U20:A 0.001
4 Reciever/Unit2/n44:4 0.01812712
5 Reciever/Unit2/n44:5 0.01411089
6 Reciever/Unit2/n44:6 0.007933774
7 Reciever/Unit2/n44:7 0.04061289
8 Reciever/Unit2/n44:8 0.04061289
9 Reciever/Unit2/n44:9 0.02773325
10 Reciever/Unit2/n44:10 0.06395124
11 Reciever/Unit2/n44:11 0.01077658
12 Reciever/Unit2/n44:12 0.01220926
13 Reciever/Unit2/n44:13 0.0507215
14 Reciever/Unit2/n44:14 0.0507215
15 Reciever/Unit2/n44:15 0.06343564
16 Reciever/Unit2/n44:16 0.1177808

*RES
0 Reciever\/Unit2\/U90:Y Reciever/Unit2/n44:16 1
1 Reciever/Unit2/n44:16 Reciever/Unit2/n44:15 2.690179
2 Reciever/Unit2/n44:16 Reciever/Unit2/n44:10 2.171429
3 Reciever/Unit2/n44:15 Reciever/Unit2/n44:14 0.5
4 Reciever/Unit2/n44:14 Reciever/Unit2/n44:13 2.123214
5 Reciever/Unit2/n44:12 Reciever/Unit2/n44:11 0.2325
6 Reciever/Unit2/n44:13 Reciever/Unit2/n44:12 0.5
7 Reciever/Unit2/n44:11 Reciever\/Unit2\/U89:A4 1
8 Reciever/Unit2/n44:4 Reciever\/Unit2\/U20:A 1
9 Reciever/Unit2/n44:9 Reciever/Unit2/n44:8 0.5
10 Reciever/Unit2/n44:9 Reciever/Unit2/n44:4 0.5187501
11 Reciever/Unit2/n44:8 Reciever/Unit2/n44:7 1.851786
12 Reciever/Unit2/n44:6 Reciever\/Unit2\/U42:A2 1
13 Reciever/Unit2/n44:6 Reciever/Unit2/n44:5 0.2825
14 Reciever/Unit2/n44:7 Reciever/Unit2/n44:6 0.5
15 Reciever/Unit2/n44:10 Reciever/Unit2/n44:9 0.2714286

*END

*D_NET Reciever/Unit2/n45 0.2759439 //LENGTH 3.249 LUMPCC 0 DR

*CONN
*I Reciever\/Unit2\/U65:Y O *L 0 *C 14.892 9.116
*I Reciever\/Unit2\/U42:A3 I *L 0.44295 *C 13.828 7.900
*I Reciever\/Unit2\/U64:A2 I *L 0.529633 *C 14.132 9.420
*N Reciever/Unit2/n45:3 *C 14.132 9.407
*N Reciever/Unit2/n45:4 *C 13.829 7.900
*N Reciever/Unit2/n45:5 *C 14.132 7.900
*N Reciever/Unit2/n45:6 *C 14.132 8.812
*N Reciever/Unit2/n45:7 *C 14.146 8.812
*N Reciever/Unit2/n45:8 *C 14.879 8.812
*N Reciever/Unit2/n45:9 *C 14.892 8.825
*N Reciever/Unit2/n45:10 *C 14.892 9.103

*CAP
0 Reciever\/Unit2\/U65:Y 0.001
1 Reciever\/Unit2\/U42:A3 0.001
2 Reciever\/Unit2\/U64:A2 0.001
3 Reciever/Unit2/n45:3 0.03382523
4 Reciever/Unit2/n45:4 0.01056715
5 Reciever/Unit2/n45:5 0.06299821
6 Reciever/Unit2/n45:6 0.08388407
7 Reciever/Unit2/n45:7 0.02747761
8 Reciever/Unit2/n45:8 0.02747761
9 Reciever/Unit2/n45:9 0.01407336
10 Reciever/Unit2/n45:10 0.01264069

*RES
0 Reciever\/Unit2\/U65:Y Reciever/Unit2/n45:10 1
1 Reciever/Unit2/n45:3 Reciever\/Unit2\/U64:A2 1
2 Reciever/Unit2/n45:6 Reciever/Unit2/n45:5 1.628571
3 Reciever/Unit2/n45:6 Reciever/Unit2/n45:3 1.061607
4 Reciever/Unit2/n45:7 Reciever/Unit2/n45:6 0.5
5 Reciever/Unit2/n45:9 Reciever/Unit2/n45:8 0.5
6 Reciever/Unit2/n45:8 Reciever/Unit2/n45:7 1.308929
7 Reciever/Unit2/n45:10 Reciever/Unit2/n45:9 0.4946429
8 Reciever/Unit2/n45:4 Reciever\/Unit2\/U42:A3 1
9 Reciever/Unit2/n45:5 Reciever/Unit2/n45:4 0.5410715

*END

*D_NET Reciever/Unit2/n46 0.394109 //LENGTH 4.549 LUMPCC 0 DR

*CONN
*I Reciever\/Unit2\/U44:Y O *L 0 *C 5.772 12.916
*I Reciever\/Unit2\/U43:A3 I *L 0.535173 *C 5.316 15.196
*I Reciever\/Unit2\/U29:A I *L 0.577904 *C 6.836 12.764
*N Reciever/Unit2/n46:3 *C 6.836 12.777
*N Reciever/Unit2/n46:4 *C 6.836 13.055
*N Reciever/Unit2/n46:5 *C 6.823 13.068
*N Reciever/Unit2/n46:6 *C 5.316 15.183
*N Reciever/Unit2/n46:7 *C 5.316 13.082
*N Reciever/Unit2/n46:8 *C 5.330 13.068
*N Reciever/Unit2/n46:9 *C 5.772 13.068
*N Reciever/Unit2/n46:10 *C 5.772 13.056
*N Reciever/Unit2/n46:11 *C 5.772 12.916

*CAP
0 Reciever\/Unit2\/U44:Y 0.001
1 Reciever\/Unit2\/U43:A3 0.001
2 Reciever\/Unit2\/U29:A 0.001
3 Reciever/Unit2/n46:3 0.01970499
4 Reciever/Unit2/n46:4 0.02113767
5 Reciever/Unit2/n46:5 0.03788715
6 Reciever/Unit2/n46:6 0.1098711
7 Reciever/Unit2/n46:7 0.1113038
8 Reciever/Unit2/n46:8 0.01553921
9 Reciever/Unit2/n46:9 0.05579858
10 Reciever/Unit2/n46:10 0.01064962
11 Reciever/Unit2/n46:11 0.009216941

*RES
0 Reciever\/Unit2\/U44:Y Reciever/Unit2/n46:11 1
1 Reciever/Unit2/n46:4 Reciever/Unit2/n46:3 0.494643
2 Reciever/Unit2/n46:5 Reciever/Unit2/n46:4 0.5
3 Reciever/Unit2/n46:3 Reciever\/Unit2\/U29:A 1
4 Reciever/Unit2/n46:10 Reciever/Unit2/n46:9 0.5
5 Reciever/Unit2/n46:9 Reciever/Unit2/n46:8 0.7901786
6 Reciever/Unit2/n46:9 Reciever/Unit2/n46:5 1.875893
7 Reciever/Unit2/n46:11 Reciever/Unit2/n46:10 0.2325
8 Reciever/Unit2/n46:7 Reciever/Unit2/n46:6 3.751786
9 Reciever/Unit2/n46:8 Reciever/Unit2/n46:7 0.5
10 Reciever/Unit2/n46:6 Reciever\/Unit2\/U43:A3 1

*END

*D_NET Reciever/Unit2/n47 0.2816358 //LENGTH 2.806 LUMPCC 0 DR

*CONN
*I Reciever\/Unit2\/U45:Y O *L 0 *C 6.988 11.092
*I Reciever\/Unit2\/U44:A2 I *L 0.46235 *C 6.076 12.764
*N Reciever/Unit2/n47:2 *C 6.076 12.751
*N Reciever/Unit2/n47:3 *C 6.076 12.612
*N Reciever/Unit2/n47:4 *C 6.988 12.612
*N Reciever/Unit2/n47:5 *C 6.988 11.106

*CAP
0 Reciever\/Unit2\/U45:Y 0.001
1 Reciever\/Unit2\/U44:A2 0.001
2 Reciever/Unit2/n47:2 0.008420073
3 Reciever/Unit2/n47:3 0.05389298
4 Reciever/Unit2/n47:4 0.1313978
5 Reciever/Unit2/n47:5 0.08592492

*RES
0 Reciever\/Unit2\/U45:Y Reciever/Unit2/n47:5 1
1 Reciever/Unit2/n47:2 Reciever\/Unit2\/U44:A2 1
2 Reciever/Unit2/n47:5 Reciever/Unit2/n47:4 2.690179
3 Reciever/Unit2/n47:3 Reciever/Unit2/n47:2 0.2473215
4 Reciever/Unit2/n47:4 Reciever/Unit2/n47:3 1.628572

*END

*D_NET Reciever/Unit2/n48 0.8836997 //LENGTH 10.252 LUMPCC 0 DR

*CONN
*I Reciever\/Unit2\/U63:Y O *L 0 *C 12.156 9.724
*I Reciever\/Unit2\/U56:A3 I *L 0.5071 *C 11.548 11.092
*I Reciever\/Unit2\/U62:A3 I *L 0.5071 *C 8.356 11.092
*I Reciever\/Unit2\/U45:A3 I *L 0.5071 *C 7.596 11.092
*I Reciever\/Unit2\/U51:A3 I *L 0.5071 *C 6.988 9.572
*N Reciever/Unit2/n48:5 *C 12.156 9.542
*N Reciever/Unit2/n48:6 *C 6.988 9.572
*N Reciever/Unit2/n48:7 *C 6.988 9.712
*N Reciever/Unit2/n48:8 *C 7.002 9.724
*N Reciever/Unit2/n48:9 *C 7.596 11.079
*N Reciever/Unit2/n48:10 *C 7.596 10.636
*N Reciever/Unit2/n48:11 *C 8.356 11.079
*N Reciever/Unit2/n48:12 *C 8.356 10.649
*N Reciever/Unit2/n48:13 *C 8.343 10.636
*N Reciever/Unit2/n48:14 *C 7.762 10.636
*N Reciever/Unit2/n48:15 *C 7.748 10.623
*N Reciever/Unit2/n48:16 *C 7.748 9.738
*N Reciever/Unit2/n48:17 *C 7.748 9.724
*N Reciever/Unit2/n48:18 *C 11.548 11.079
*N Reciever/Unit2/n48:19 *C 11.548 9.738
*N Reciever/Unit2/n48:20 *C 11.548 9.724
*N Reciever/Unit2/n48:21 *C 12.143 9.724
*N Reciever/Unit2/n48:22 *C 12.156 9.712

*CAP
0 Reciever\/Unit2\/U63:Y 0.001
1 Reciever\/Unit2\/U56:A3 0.001
2 Reciever\/Unit2\/U62:A3 0.001
3 Reciever\/Unit2\/U45:A3 0.001
4 Reciever\/Unit2\/U51:A3 0.001
5 Reciever/Unit2/n48:5 0.01771575
6 Reciever/Unit2/n48:6 0.01143312
7 Reciever/Unit2/n48:7 0.0128658
8 Reciever/Unit2/n48:8 0.02980318
9 Reciever/Unit2/n48:9 0.02636808
10 Reciever/Unit2/n48:10 0.03876346
11 Reciever/Unit2/n48:11 0.02430337
12 Reciever/Unit2/n48:12 0.02573605
13 Reciever/Unit2/n48:13 0.03195271
14 Reciever/Unit2/n48:14 0.03195271
15 Reciever/Unit2/n48:15 0.05895673
16 Reciever/Unit2/n48:16 0.05036625
17 Reciever/Unit2/n48:17 0.1766627
18 Reciever/Unit2/n48:18 0.06615207
19 Reciever/Unit2/n48:19 0.06758475
20 Reciever/Unit2/n48:20 0.1716721
21 Reciever/Unit2/n48:21 0.02481255
22 Reciever/Unit2/n48:22 0.01159836

*RES
0 Reciever\/Unit2\/U63:Y Reciever/Unit2/n48:22 1
1 Reciever/Unit2/n48:22 Reciever/Unit2/n48:21 0.5
2 Reciever/Unit2/n48:22 Reciever/Unit2/n48:5 0.2825
3 Reciever/Unit2/n48:21 Reciever/Unit2/n48:20 1.061607
4 Reciever/Unit2/n48:19 Reciever/Unit2/n48:18 2.394643
5 Reciever/Unit2/n48:20 Reciever/Unit2/n48:19 0.5
6 Reciever/Unit2/n48:20 Reciever/Unit2/n48:17 6.785715
7 Reciever/Unit2/n48:18 Reciever\/Unit2\/U56:A3 1
8 Reciever/Unit2/n48:15 Reciever/Unit2/n48:14 0.5
9 Reciever/Unit2/n48:15 Reciever/Unit2/n48:10 0.2714286
10 Reciever/Unit2/n48:14 Reciever/Unit2/n48:13 1.0375
11 Reciever/Unit2/n48:12 Reciever/Unit2/n48:11 0.7660715
12 Reciever/Unit2/n48:13 Reciever/Unit2/n48:12 0.5
13 Reciever/Unit2/n48:11 Reciever\/Unit2\/U62:A3 1
14 Reciever/Unit2/n48:16 Reciever/Unit2/n48:15 1.580357
15 Reciever/Unit2/n48:17 Reciever/Unit2/n48:16 0.5
16 Reciever/Unit2/n48:17 Reciever/Unit2/n48:8 1.333036
17 Reciever/Unit2/n48:9 Reciever\/Unit2\/U45:A3 1
18 Reciever/Unit2/n48:7 Reciever/Unit2/n48:6 0.2325
19 Reciever/Unit2/n48:8 Reciever/Unit2/n48:7 0.5
20 Reciever/Unit2/n48:6 Reciever\/Unit2\/U51:A3 1
21 Reciever/Unit2/n48:10 Reciever/Unit2/n48:9 0.7901786

*END

*D_NET Reciever/Unit2/n49 0.3538452 //LENGTH 3.654 LUMPCC 0 DR

*CONN
*I Reciever\/Unit2\/U47:Y O *L 0 *C 5.924 7.748
*I Reciever\/Unit2\/U46:A3 I *L 0.535173 *C 4.404 8.508
*I Reciever\/Unit2\/U30:A I *L 0.577904 *C 5.924 9.420
*N Reciever/Unit2/n49:3 *C 5.924 9.407
*N Reciever/Unit2/n49:4 *C 4.404 8.326
*N Reciever/Unit2/n49:5 *C 4.404 8.495
*N Reciever/Unit2/n49:6 *C 4.418 8.508
*N Reciever/Unit2/n49:7 *C 5.910 8.508
*N Reciever/Unit2/n49:8 *C 5.924 8.508
*N Reciever/Unit2/n49:9 *C 5.924 7.762

*CAP
0 Reciever\/Unit2\/U47:Y 0.001
1 Reciever\/Unit2\/U46:A3 0.001
2 Reciever\/Unit2\/U30:A 0.001
3 Reciever/Unit2/n49:3 0.05659487
4 Reciever/Unit2/n49:4 0.01995532
5 Reciever/Unit2/n49:5 0.01377821
6 Reciever/Unit2/n49:6 0.06005036
7 Reciever/Unit2/n49:7 0.06005036
8 Reciever/Unit2/n49:8 0.1011242
9 Reciever/Unit2/n49:9 0.0392918

*RES
0 Reciever\/Unit2\/U47:Y Reciever/Unit2/n49:9 1
1 Reciever/Unit2/n49:3 Reciever\/Unit2\/U30:A 1
2 Reciever/Unit2/n49:9 Reciever/Unit2/n49:8 1.333036
3 Reciever/Unit2/n49:8 Reciever/Unit2/n49:7 0.5
4 Reciever/Unit2/n49:8 Reciever/Unit2/n49:3 1.604464
5 Reciever/Unit2/n49:7 Reciever/Unit2/n49:6 2.666072
6 Reciever/Unit2/n49:5 Reciever\/Unit2\/U46:A3 1
7 Reciever/Unit2/n49:5 Reciever/Unit2/n49:4 0.2825
8 Reciever/Unit2/n49:6 Reciever/Unit2/n49:5 0.5

*END

*D_NET Reciever/Unit2/n50 0.2080436 //LENGTH 2.291 LUMPCC 0 DR

*CONN
*I Reciever\/Unit2\/U48:Y O *L 0 *C 7.900 7.748
*I Reciever\/Unit2\/U47:A2 I *L 0.46235 *C 6.228 7.900
*N Reciever/Unit2/n50:2 *C 6.228 7.718
*N Reciever/Unit2/n50:3 *C 6.228 7.888
*N Reciever/Unit2/n50:4 *C 6.242 7.900
*N Reciever/Unit2/n50:5 *C 7.887 7.900
*N Reciever/Unit2/n50:6 *C 7.900 7.888
*N Reciever/Unit2/n50:7 *C 7.900 7.748

*CAP
0 Reciever\/Unit2\/U48:Y 0.001
1 Reciever\/Unit2\/U47:A2 0.001
2 Reciever/Unit2/n50:2 0.01475109
3 Reciever/Unit2/n50:3 0.008573977
4 Reciever/Unit2/n50:4 0.07800081
5 Reciever/Unit2/n50:5 0.07800081
6 Reciever/Unit2/n50:6 0.01407483
7 Reciever/Unit2/n50:7 0.01264216

*RES
0 Reciever\/Unit2\/U48:Y Reciever/Unit2/n50:7 1
1 Reciever/Unit2/n50:3 Reciever\/Unit2\/U47:A2 1
2 Reciever/Unit2/n50:3 Reciever/Unit2/n50:2 0.2825
3 Reciever/Unit2/n50:4 Reciever/Unit2/n50:3 0.5
4 Reciever/Unit2/n50:6 Reciever/Unit2/n50:5 0.5
5 Reciever/Unit2/n50:5 Reciever/Unit2/n50:4 2.9375
6 Reciever/Unit2/n50:7 Reciever/Unit2/n50:6 0.2325

*END

*D_NET Reciever/Unit2/n51 0.7412267 //LENGTH 6.798 LUMPCC 0 DR

*CONN
*I Reciever\/Unit2\/U59:Y O *L 0 *C 10.940 7.596
*I Reciever\/Unit2\/U58:A1 I *L 0.492533 *C 9.876 6.228
*I Reciever\/Unit2\/U53:A1 I *L 0.492533 *C 10.028 9.572
*I Reciever\/Unit2\/U48:A3 I *L 0.5071 *C 8.508 7.748
*N Reciever/Unit2/n51:4 *C 10.940 7.414
*N Reciever/Unit2/n51:5 *C 8.508 7.736
*N Reciever/Unit2/n51:6 *C 8.508 7.596
*N Reciever/Unit2/n51:7 *C 8.521 7.596
*N Reciever/Unit2/n51:8 *C 10.028 9.559
*N Reciever/Unit2/n51:9 *C 9.876 6.242
*N Reciever/Unit2/n51:10 *C 9.876 7.596
*N Reciever/Unit2/n51:11 *C 10.028 7.610
*N Reciever/Unit2/n51:12 *C 10.028 7.596
*N Reciever/Unit2/n51:13 *C 10.927 7.596
*N Reciever/Unit2/n51:14 *C 10.940 7.584

*CAP
0 Reciever\/Unit2\/U59:Y 0.001
1 Reciever\/Unit2\/U58:A1 0.001
2 Reciever\/Unit2\/U53:A1 0.001
3 Reciever\/Unit2\/U48:A3 0.001
4 Reciever/Unit2/n51:4 0.01254827
5 Reciever/Unit2/n51:5 0.008609779
6 Reciever/Unit2/n51:6 0.01004246
7 Reciever/Unit2/n51:7 0.05794761
8 Reciever/Unit2/n51:8 0.1536019
9 Reciever/Unit2/n51:9 0.08730361
10 Reciever/Unit2/n51:10 0.09981757
11 Reciever/Unit2/n51:11 0.1637436
12 Reciever/Unit2/n51:12 0.0987504
13 Reciever/Unit2/n51:13 0.03843057
14 Reciever/Unit2/n51:14 0.006430872

*RES
0 Reciever\/Unit2\/U59:Y Reciever/Unit2/n51:14 1
1 Reciever/Unit2/n51:14 Reciever/Unit2/n51:13 0.5
2 Reciever/Unit2/n51:14 Reciever/Unit2/n51:4 0.2825
3 Reciever/Unit2/n51:13 Reciever/Unit2/n51:12 1.604464
4 Reciever/Unit2/n51:8 Reciever\/Unit2\/U53:A1 1
5 Reciever/Unit2/n51:11 Reciever/Unit2/n51:10 0.2714286
6 Reciever/Unit2/n51:11 Reciever/Unit2/n51:8 3.480358
7 Reciever/Unit2/n51:12 Reciever/Unit2/n51:11 0.5
8 Reciever/Unit2/n51:12 Reciever/Unit2/n51:7 2.690179
9 Reciever/Unit2/n51:9 Reciever\/Unit2\/U58:A1 1
10 Reciever/Unit2/n51:6 Reciever/Unit2/n51:5 0.2325
11 Reciever/Unit2/n51:7 Reciever/Unit2/n51:6 0.5
12 Reciever/Unit2/n51:5 Reciever\/Unit2\/U48:A3 1
13 Reciever/Unit2/n51:10 Reciever/Unit2/n51:9 2.41875

*END

*D_NET Reciever/Unit2/n52 0.345723 //LENGTH 3.465 LUMPCC 0 DR

*CONN
*I Reciever\/Unit2\/U50:Y O *L 0 *C 5.924 11.092
*I Reciever\/Unit2\/U26:A I *L 0.577904 *C 5.316 11.244
*I Reciever\/Unit2\/U49:A3 I *L 0.535173 *C 4.100 12.156
*N Reciever/Unit2/n52:3 *C 4.100 12.143
*N Reciever/Unit2/n52:4 *C 4.100 11.258
*N Reciever/Unit2/n52:5 *C 4.114 11.244
*N Reciever/Unit2/n52:6 *C 5.316 11.062
*N Reciever/Unit2/n52:7 *C 5.316 11.232
*N Reciever/Unit2/n52:8 *C 5.316 11.244
*N Reciever/Unit2/n52:9 *C 5.910 11.244
*N Reciever/Unit2/n52:10 *C 5.924 11.232
*N Reciever/Unit2/n52:11 *C 5.924 11.092

*CAP
0 Reciever\/Unit2\/U50:Y 0.001
1 Reciever\/Unit2\/U26:A 0.001
2 Reciever\/Unit2\/U49:A3 0.001
3 Reciever/Unit2/n52:3 0.06730172
4 Reciever/Unit2/n52:4 0.0687344
5 Reciever/Unit2/n52:5 0.05309876
6 Reciever/Unit2/n52:6 0.01248504
7 Reciever/Unit2/n52:7 0.006307926
8 Reciever/Unit2/n52:8 0.0829924
9 Reciever/Unit2/n52:9 0.02752143
10 Reciever/Unit2/n52:10 0.012857
11 Reciever/Unit2/n52:11 0.01142432

*RES
0 Reciever\/Unit2\/U50:Y Reciever/Unit2/n52:11 1
1 Reciever/Unit2/n52:10 Reciever/Unit2/n52:9 0.5
2 Reciever/Unit2/n52:9 Reciever/Unit2/n52:8 1.061607
3 Reciever/Unit2/n52:11 Reciever/Unit2/n52:10 0.2325
4 Reciever/Unit2/n52:7 Reciever\/Unit2\/U26:A 1
5 Reciever/Unit2/n52:7 Reciever/Unit2/n52:6 0.2825
6 Reciever/Unit2/n52:8 Reciever/Unit2/n52:7 0.5
7 Reciever/Unit2/n52:8 Reciever/Unit2/n52:5 2.147322
8 Reciever/Unit2/n52:4 Reciever/Unit2/n52:3 1.580357
9 Reciever/Unit2/n52:5 Reciever/Unit2/n52:4 0.5
10 Reciever/Unit2/n52:3 Reciever\/Unit2\/U49:A3 1

*END

*D_NET Reciever/Unit2/n53 0.3124688 //LENGTH 3.193 LUMPCC 0 DR

*CONN
*I Reciever\/Unit2\/U51:Y O *L 0 *C 7.596 9.724
*I Reciever\/Unit2\/U50:A2 I *L 0.46235 *C 6.228 11.244
*N Reciever/Unit2/n53:2 *C 6.228 11.243
*N Reciever/Unit2/n53:3 *C 6.228 10.346
*N Reciever/Unit2/n53:4 *C 6.242 10.332
*N Reciever/Unit2/n53:5 *C 7.583 10.332
*N Reciever/Unit2/n53:6 *C 7.596 10.319
*N Reciever/Unit2/n53:7 *C 7.596 9.738

*CAP
0 Reciever\/Unit2\/U51:Y 0.001
1 Reciever\/Unit2\/U50:A2 0.001
2 Reciever/Unit2/n53:2 0.06083252
3 Reciever/Unit2/n53:3 0.06209224
4 Reciever/Unit2/n53:4 0.05705006
5 Reciever/Unit2/n53:5 0.05705006
6 Reciever/Unit2/n53:6 0.03743831
7 Reciever/Unit2/n53:7 0.03600563

*RES
0 Reciever\/Unit2\/U51:Y Reciever/Unit2/n53:7 1
1 Reciever/Unit2/n53:2 Reciever\/Unit2\/U50:A2 1
2 Reciever/Unit2/n53:3 Reciever/Unit2/n53:2 1.602679
3 Reciever/Unit2/n53:4 Reciever/Unit2/n53:3 0.5
4 Reciever/Unit2/n53:6 Reciever/Unit2/n53:5 0.5
5 Reciever/Unit2/n53:5 Reciever/Unit2/n53:4 2.394643
6 Reciever/Unit2/n53:7 Reciever/Unit2/n53:6 1.0375

*END

*D_NET Reciever/Unit2/n54 0.7041938 //LENGTH 6.896 LUMPCC 0 DR

*CONN
*I Reciever\/Unit2\/U53:Y O *L 0 *C 10.636 10.180
*I Reciever\/Unit2\/U27:A I *L 0.577904 *C 10.484 12.764
*I Reciever\/Unit2\/U52:A3 I *L 0.535173 *C 11.700 15.196
*N Reciever/Unit2/n54:3 *C 11.700 15.183
*N Reciever/Unit2/n54:4 *C 11.700 12.916
*N Reciever/Unit2/n54:5 *C 10.484 12.777
*N Reciever/Unit2/n54:6 *C 10.484 12.916
*N Reciever/Unit2/n54:7 *C 10.788 12.916
*N Reciever/Unit2/n54:8 *C 10.788 10.194
*N Reciever/Unit2/n54:9 *C 10.773 10.180

*CAP
0 Reciever\/Unit2\/U53:Y 0.01583521
1 Reciever\/Unit2\/U27:A 0.001
2 Reciever\/Unit2\/U52:A3 0.001
3 Reciever/Unit2/n54:3 0.1240404
4 Reciever/Unit2/n54:4 0.1665067
5 Reciever/Unit2/n54:5 0.01033581
6 Reciever/Unit2/n54:6 0.02803584
7 Reciever/Unit2/n54:7 0.199156
8 Reciever/Unit2/n54:8 0.1445241
9 Reciever/Unit2/n54:9 0.01375981

*RES
0 Reciever\/Unit2\/U53:Y Reciever/Unit2/n54:9 0.274
1 Reciever/Unit2/n54:3 Reciever\/Unit2\/U52:A3 1
2 Reciever/Unit2/n54:9 Reciever/Unit2/n54:8 1
3 Reciever/Unit2/n54:8 Reciever/Unit2/n54:7 4.861607
4 Reciever/Unit2/n54:5 Reciever\/Unit2\/U27:A 1
5 Reciever/Unit2/n54:6 Reciever/Unit2/n54:5 0.2473214
6 Reciever/Unit2/n54:7 Reciever/Unit2/n54:6 0.5428572
7 Reciever/Unit2/n54:7 Reciever/Unit2/n54:4 1.628572
8 Reciever/Unit2/n54:4 Reciever/Unit2/n54:3 4.047322

*END

*D_NET Reciever/Unit2/n55 0.4479334 //LENGTH 5.406 LUMPCC 0 DR

*CONN
*I Reciever\/Unit2\/U55:Y O *L 0 *C 12.916 11.092
*I Reciever\/Unit2\/U31:A I *L 0.577904 *C 13.828 12.764
*I Reciever\/Unit2\/U54:A3 I *L 0.535173 *C 13.524 15.196
*N Reciever/Unit2/n55:3 *C 13.524 15.183
*N Reciever/Unit2/n55:4 *C 13.827 12.764
*N Reciever/Unit2/n55:5 *C 13.524 12.764
*N Reciever/Unit2/n55:6 *C 13.511 12.764
*N Reciever/Unit2/n55:7 *C 12.930 12.764
*N Reciever/Unit2/n55:8 *C 12.916 12.751
*N Reciever/Unit2/n55:9 *C 12.916 11.106

*CAP
0 Reciever\/Unit2\/U55:Y 0.001
1 Reciever\/Unit2\/U31:A 0.001
2 Reciever\/Unit2\/U54:A3 0.001
3 Reciever/Unit2/n55:3 0.1172385
4 Reciever/Unit2/n55:4 0.01000606
5 Reciever/Unit2/n55:5 0.1324822
6 Reciever/Unit2/n55:6 0.02328179
7 Reciever/Unit2/n55:7 0.02328179
8 Reciever/Unit2/n55:8 0.07003791
9 Reciever/Unit2/n55:9 0.06860523

*RES
0 Reciever\/Unit2\/U55:Y Reciever/Unit2/n55:9 1
1 Reciever/Unit2/n55:4 Reciever\/Unit2\/U31:A 1
2 Reciever/Unit2/n55:3 Reciever\/Unit2\/U54:A3 1
3 Reciever/Unit2/n55:5 Reciever/Unit2/n55:4 0.5410715
4 Reciever/Unit2/n55:5 Reciever/Unit2/n55:3 4.31875
5 Reciever/Unit2/n55:6 Reciever/Unit2/n55:5 0.5
6 Reciever/Unit2/n55:8 Reciever/Unit2/n55:7 0.5
7 Reciever/Unit2/n55:7 Reciever/Unit2/n55:6 1.0375
8 Reciever/Unit2/n55:9 Reciever/Unit2/n55:8 2.9375

*END

*D_NET Reciever/Unit2/n56 0.06562918 //LENGTH 0.442 LUMPCC 0 DR

*CONN
*I Reciever\/Unit2\/U56:Y O *L 0 *C 12.145 11.244
*I Reciever\/Unit2\/U55:A2 I *L 0.46235 *C 12.587 11.269

*CAP
0 Reciever\/Unit2\/U56:Y 0.03281459
1 Reciever\/Unit2\/U55:A2 0.03281459

*RES
0 Reciever\/Unit2\/U56:Y Reciever\/Unit2\/U55:A2 0.8840001

*END

*D_NET Reciever/Unit2/n57 0.5050845 //LENGTH 6.033 LUMPCC 0 DR

*CONN
*I Reciever\/Unit2\/U58:Y O *L 0 *C 9.268 6.380
*I Reciever\/Unit2\/U32:A I *L 0.577904 *C 6.380 6.076
*I Reciever\/Unit2\/U57:A3 I *L 0.535173 *C 5.164 5.468
*N Reciever/Unit2/n57:3 *C 5.164 5.286
*N Reciever/Unit2/n57:4 *C 5.164 5.456
*N Reciever/Unit2/n57:5 *C 5.178 5.468
*N Reciever/Unit2/n57:6 *C 6.380 5.468
*N Reciever/Unit2/n57:7 *C 6.380 6.062
*N Reciever/Unit2/n57:8 *C 6.380 5.785
*N Reciever/Unit2/n57:9 *C 6.380 5.772
*N Reciever/Unit2/n57:10 *C 9.255 5.772
*N Reciever/Unit2/n57:11 *C 9.268 5.785
*N Reciever/Unit2/n57:12 *C 9.268 6.367

*CAP
0 Reciever\/Unit2\/U58:Y 0.001
1 Reciever\/Unit2\/U32:A 0.001
2 Reciever\/Unit2\/U57:A3 0.001
3 Reciever/Unit2/n57:3 0.01492388
4 Reciever/Unit2/n57:4 0.00874676
5 Reciever/Unit2/n57:5 0.05794587
6 Reciever/Unit2/n57:6 0.07201593
7 Reciever/Unit2/n57:7 0.01971262
8 Reciever/Unit2/n57:8 0.0211453
9 Reciever/Unit2/n57:9 0.1162808
10 Reciever/Unit2/n57:10 0.1045829
11 Reciever/Unit2/n57:11 0.04408156
12 Reciever/Unit2/n57:12 0.04264888

*RES
0 Reciever\/Unit2\/U58:Y Reciever/Unit2/n57:12 1
1 Reciever/Unit2/n57:11 Reciever/Unit2/n57:10 0.5
2 Reciever/Unit2/n57:10 Reciever/Unit2/n57:9 5.133036
3 Reciever/Unit2/n57:12 Reciever/Unit2/n57:11 1.0375
4 Reciever/Unit2/n57:8 Reciever/Unit2/n57:7 0.4946429
5 Reciever/Unit2/n57:9 Reciever/Unit2/n57:8 0.5
6 Reciever/Unit2/n57:9 Reciever/Unit2/n57:6 0.5428572
7 Reciever/Unit2/n57:7 Reciever\/Unit2\/U32:A 1
8 Reciever/Unit2/n57:4 Reciever\/Unit2\/U57:A3 1
9 Reciever/Unit2/n57:4 Reciever/Unit2/n57:3 0.2825
10 Reciever/Unit2/n57:5 Reciever/Unit2/n57:4 0.5
11 Reciever/Unit2/n57:6 Reciever/Unit2/n57:5 2.147322

*END

*D_NET Reciever/Unit2/n58 0.4047312 //LENGTH 4.537 LUMPCC 0 DR

*CONN
*I Reciever\/Unit2\/U64:Y O *L 0 *C 13.372 9.268
*I Reciever\/Unit2\/U63:A1 I *L 0.592288 *C 11.700 9.572
*I Reciever\/Unit2\/U59:A1 I *L 0.592288 *C 11.396 7.748
*N Reciever/Unit2/n58:3 *C 11.699 9.572
*N Reciever/Unit2/n58:4 *C 11.396 7.762
*N Reciever/Unit2/n58:5 *C 11.396 9.572
*N Reciever/Unit2/n58:6 *C 11.700 9.559
*N Reciever/Unit2/n58:7 *C 11.700 9.433
*N Reciever/Unit2/n58:8 *C 11.713 9.420
*N Reciever/Unit2/n58:9 *C 13.359 9.420
*N Reciever/Unit2/n58:10 *C 13.372 9.408
*N Reciever/Unit2/n58:11 *C 13.372 9.268

*CAP
0 Reciever\/Unit2\/U64:Y 0.001
1 Reciever\/Unit2\/U63:A1 0.001
2 Reciever\/Unit2\/U59:A1 0.001
3 Reciever/Unit2/n58:3 0.003542733
4 Reciever/Unit2/n58:4 0.09700461
5 Reciever/Unit2/n58:5 0.1145056
6 Reciever/Unit2/n58:6 0.02561594
7 Reciever/Unit2/n58:7 0.00980984
8 Reciever/Unit2/n58:8 0.06775351
9 Reciever/Unit2/n58:9 0.06775351
10 Reciever/Unit2/n58:10 0.008589065
11 Reciever/Unit2/n58:11 0.007156387

*RES
0 Reciever\/Unit2\/U64:Y Reciever/Unit2/n58:11 1
1 Reciever/Unit2/n58:6 Reciever\/Unit2\/U63:A1 1
2 Reciever/Unit2/n58:6 Reciever/Unit2/n58:5 0.5428572
3 Reciever/Unit2/n58:6 Reciever/Unit2/n58:3 0.01
4 Reciever/Unit2/n58:7 Reciever/Unit2/n58:6 0.2116667
5 Reciever/Unit2/n58:8 Reciever/Unit2/n58:7 0.5
6 Reciever/Unit2/n58:10 Reciever/Unit2/n58:9 0.5
7 Reciever/Unit2/n58:9 Reciever/Unit2/n58:8 2.9375
8 Reciever/Unit2/n58:11 Reciever/Unit2/n58:10 0.2325
9 Reciever/Unit2/n58:4 Reciever\/Unit2\/U59:A1 1
10 Reciever/Unit2/n58:5 Reciever/Unit2/n58:4 3.233036

*END

*D_NET Reciever/Unit2/n59 0.4672398 //LENGTH 5.340 LUMPCC 0 DR

*CONN
*I Reciever\/Unit2\/U61:Y O *L 0 *C 7.900 12.916
*I Reciever\/Unit2\/U28:A I *L 0.577904 *C 10.028 14.588
*I Reciever\/Unit2\/U60:A3 I *L 0.535173 *C 10.180 15.500
*N Reciever/Unit2/n59:3 *C 10.180 15.487
*N Reciever/Unit2/n59:4 *C 10.180 14.588
*N Reciever/Unit2/n59:5 *C 10.028 14.588
*N Reciever/Unit2/n59:6 *C 10.028 13.082
*N Reciever/Unit2/n59:7 *C 10.014 13.068
*N Reciever/Unit2/n59:8 *C 7.913 13.068
*N Reciever/Unit2/n59:9 *C 7.900 13.056
*N Reciever/Unit2/n59:10 *C 7.900 12.916

*CAP
0 Reciever\/Unit2\/U61:Y 0.001
1 Reciever\/Unit2\/U28:A 0.001
2 Reciever\/Unit2\/U60:A3 0.001
3 Reciever/Unit2/n59:3 0.05429871
4 Reciever/Unit2/n59:4 0.06671374
5 Reciever/Unit2/n59:5 0.07753251
6 Reciever/Unit2/n59:6 0.07035506
7 Reciever/Unit2/n59:7 0.0870202
8 Reciever/Unit2/n59:8 0.0870202
9 Reciever/Unit2/n59:9 0.01136601
10 Reciever/Unit2/n59:10 0.009933328

*RES
0 Reciever\/Unit2\/U61:Y Reciever/Unit2/n59:10 1
1 Reciever/Unit2/n59:3 Reciever\/Unit2\/U60:A3 1
2 Reciever/Unit2/n59:5 Reciever\/Unit2\/U28:A 1
3 Reciever/Unit2/n59:5 Reciever/Unit2/n59:4 0.2714286
4 Reciever/Unit2/n59:6 Reciever/Unit2/n59:5 2.690179
5 Reciever/Unit2/n59:7 Reciever/Unit2/n59:6 0.5
6 Reciever/Unit2/n59:9 Reciever/Unit2/n59:8 0.5
7 Reciever/Unit2/n59:8 Reciever/Unit2/n59:7 3.751786
8 Reciever/Unit2/n59:10 Reciever/Unit2/n59:9 0.2325
9 Reciever/Unit2/n59:4 Reciever/Unit2/n59:3 1.604464

*END

*D_NET Reciever/Unit2/n60 0.1491951 //LENGTH 1.661 LUMPCC 0 DR

*CONN
*I Reciever\/Unit2\/U62:Y O *L 0 *C 8.812 11.852
*I Reciever\/Unit2\/U61:A2 I *L 0.46235 *C 8.204 12.764
*N Reciever/Unit2/n60:2 *C 8.205 12.764
*N Reciever/Unit2/n60:3 *C 8.812 12.764
*N Reciever/Unit2/n60:4 *C 8.812 11.866

*CAP
0 Reciever\/Unit2\/U62:Y 0.001
1 Reciever\/Unit2\/U61:A2 0.001
2 Reciever/Unit2/n60:2 0.02442808
3 Reciever/Unit2/n60:3 0.07724681
4 Reciever/Unit2/n60:4 0.04552025

*RES
0 Reciever\/Unit2\/U62:Y Reciever/Unit2/n60:4 1
1 Reciever/Unit2/n60:2 Reciever\/Unit2\/U61:A2 1
2 Reciever/Unit2/n60:4 Reciever/Unit2/n60:3 1.604464
3 Reciever/Unit2/n60:3 Reciever/Unit2/n60:2 1.083929

*END

*D_NET Reciever/Unit2/n61 1.269791 //LENGTH 14.818 LUMPCC 0 DR

*CONN
*I Reciever\/Unit2\/U99:Y O *L 0 *C 21.732 7.748
*I Reciever\/Unit2\/U93:A1 I *L 0.548399 *C 16.412 8.026
*I Reciever\/Unit2\/U94:A1 I *L 0.497788 *C 16.716 9.420
*I Reciever\/Unit2\/U65:A1 I *L 0.548399 *C 15.956 9.420
*I Reciever\/Unit2\/U86:A2 I *L 0.559393 *C 24.012 4.556
*N Reciever/Unit2/n61:5 *C 24.012 4.570
*N Reciever/Unit2/n61:6 *C 24.012 8.191
*N Reciever/Unit2/n61:7 *C 23.998 8.204
*N Reciever/Unit2/n61:8 *C 16.032 9.420
*N Reciever/Unit2/n61:9 *C 16.071 9.420
*N Reciever/Unit2/n61:10 *C 16.716 9.407
*N Reciever/Unit2/n61:11 *C 16.488 8.052
*N Reciever/Unit2/n61:12 *C 16.527 8.052
*N Reciever/Unit2/n61:13 *C 16.716 8.052
*N Reciever/Unit2/n61:14 *C 16.716 8.204
*N Reciever/Unit2/n61:15 *C 16.730 8.204
*N Reciever/Unit2/n61:16 *C 21.732 8.204
*N Reciever/Unit2/n61:17 *C 21.732 8.191
*N Reciever/Unit2/n61:18 *C 21.732 7.762

*CAP
0 Reciever\/Unit2\/U99:Y 0.001
1 Reciever\/Unit2\/U93:A1 0.01611573
2 Reciever\/Unit2\/U94:A1 0.001
3 Reciever\/Unit2\/U65:A1 0.01844549
4 Reciever\/Unit2\/U86:A2 0.001
5 Reciever/Unit2/n61:5 0.1794526
6 Reciever/Unit2/n61:6 0.1808853
7 Reciever/Unit2/n61:7 0.1097004
8 Reciever/Unit2/n61:8 0.01111242
9 Reciever/Unit2/n61:9 0.02417743
10 Reciever/Unit2/n61:10 0.07587086
11 Reciever/Unit2/n61:11 0.008782656
12 Reciever/Unit2/n61:12 0.006571462
13 Reciever/Unit2/n61:13 0.02124777
14 Reciever/Unit2/n61:14 0.05313627
15 Reciever/Unit2/n61:15 0.1987567
16 Reciever/Unit2/n61:16 0.3108293
17 Reciever/Unit2/n61:17 0.02656955
18 Reciever/Unit2/n61:18 0.02513687

*RES
0 Reciever\/Unit2\/U99:Y Reciever/Unit2/n61:18 1
1 Reciever/Unit2/n61:6 Reciever/Unit2/n61:5 6.466072
2 Reciever/Unit2/n61:7 Reciever/Unit2/n61:6 0.5
3 Reciever/Unit2/n61:5 Reciever\/Unit2\/U86:A2 1
4 Reciever/Unit2/n61:17 Reciever/Unit2/n61:16 0.5
5 Reciever/Unit2/n61:16 Reciever/Unit2/n61:15 8.933037
6 Reciever/Unit2/n61:16 Reciever/Unit2/n61:7 4.047322
7 Reciever/Unit2/n61:18 Reciever/Unit2/n61:17 0.7660714
8 Reciever/Unit2/n61:10 Reciever\/Unit2\/U94:A1 1
9 Reciever/Unit2/n61:10 Reciever/Unit2/n61:9 1.151786
10 Reciever/Unit2/n61:14 Reciever/Unit2/n61:13 0.2714286
11 Reciever/Unit2/n61:14 Reciever/Unit2/n61:10 2.147321
12 Reciever/Unit2/n61:15 Reciever/Unit2/n61:14 0.5
13 Reciever/Unit2/n61:11 Reciever\/Unit2\/U93:A1 0.2183334
14 Reciever/Unit2/n61:12 Reciever/Unit2/n61:11 0.5
15 Reciever/Unit2/n61:8 Reciever\/Unit2\/U65:A1 0.2183334
16 Reciever/Unit2/n61:9 Reciever/Unit2/n61:8 0.5
17 Reciever/Unit2/n61:13 Reciever/Unit2/n61:12 0.3375

*END

*D_NET Reciever/Unit2/n62 0.2474605 //LENGTH 2.908 LUMPCC 0 DR

*CONN
*I Reciever\/Unit2\/U68:Y O *L 0 *C 20.820 11.092
*I Reciever\/Unit2\/U73:A I *L 0.577904 *C 19.908 11.244
*I Reciever\/Unit2\/U66:A3 I *L 0.535173 *C 19.504 12.156
*N Reciever/Unit2/n62:3 *C 19.452 12.156
*N Reciever/Unit2/n62:4 *C 19.452 12.143
*N Reciever/Unit2/n62:5 *C 19.452 11.244
*N Reciever/Unit2/n62:6 *C 19.907 11.244
*N Reciever/Unit2/n62:7 *C 19.922 11.244
*N Reciever/Unit2/n62:8 *C 20.806 11.244
*N Reciever/Unit2/n62:9 *C 20.820 11.232
*N Reciever/Unit2/n62:10 *C 20.820 11.092

*CAP
0 Reciever\/Unit2\/U68:Y 0.001
1 Reciever\/Unit2\/U73:A 0.001
2 Reciever\/Unit2\/U66:A3 0.01009764
3 Reciever/Unit2/n62:3 0.008022238
4 Reciever/Unit2/n62:4 0.04307714
5 Reciever/Unit2/n62:5 0.06678424
6 Reciever/Unit2/n62:6 0.01545459
7 Reciever/Unit2/n62:7 0.04023618
8 Reciever/Unit2/n62:8 0.04023618
9 Reciever/Unit2/n62:9 0.01149249
10 Reciever/Unit2/n62:10 0.01005982

*RES
0 Reciever\/Unit2\/U68:Y Reciever/Unit2/n62:10 1
1 Reciever/Unit2/n62:6 Reciever\/Unit2\/U73:A 1
2 Reciever/Unit2/n62:6 Reciever/Unit2/n62:5 0.8125
3 Reciever/Unit2/n62:7 Reciever/Unit2/n62:6 0.5
4 Reciever/Unit2/n62:9 Reciever/Unit2/n62:8 0.5
5 Reciever/Unit2/n62:8 Reciever/Unit2/n62:7 1.580357
6 Reciever/Unit2/n62:10 Reciever/Unit2/n62:9 0.2325
7 Reciever/Unit2/n62:3 Reciever\/Unit2\/U66:A3 0.09166668
8 Reciever/Unit2/n62:4 Reciever/Unit2/n62:3 1
9 Reciever/Unit2/n62:5 Reciever/Unit2/n62:4 1.604464

*END

*D_NET Reciever/Unit2/n63 0.7238513 //LENGTH 9.140 LUMPCC 0 DR

*CONN
*I Reciever\/Unit2\/U107:Y O *L 0 *C 23.404 2.884
*I Reciever\/Unit2\/U13:A I *L 0.577904 *C 18.844 2.732
*I Reciever\/Unit2\/U67:A1 I *L 0.607542 *C 18.236 4.404
*I Reciever\/Unit2\/U87:A1 I *L 0.592288 *C 22.036 4.404
*N Reciever/Unit2/n63:4 *C 22.036 4.392
*N Reciever/Unit2/n63:5 *C 18.236 4.392
*N Reciever/Unit2/n63:6 *C 18.236 4.252
*N Reciever/Unit2/n63:7 *C 18.250 4.252
*N Reciever/Unit2/n63:8 *C 18.844 2.746
*N Reciever/Unit2/n63:9 *C 18.844 4.239
*N Reciever/Unit2/n63:10 *C 18.844 4.252
*N Reciever/Unit2/n63:11 *C 22.023 4.252
*N Reciever/Unit2/n63:12 *C 22.036 4.251
*N Reciever/Unit2/n63:13 *C 22.036 3.050
*N Reciever/Unit2/n63:14 *C 22.050 3.036
*N Reciever/Unit2/n63:15 *C 23.390 3.036
*N Reciever/Unit2/n63:16 *C 23.404 3.024
*N Reciever/Unit2/n63:17 *C 23.404 2.884

*CAP
0 Reciever\/Unit2\/U107:Y 0.001
1 Reciever\/Unit2\/U13:A 0.001
2 Reciever\/Unit2\/U67:A1 0.001
3 Reciever\/Unit2\/U87:A1 0.001
4 Reciever/Unit2/n63:4 0.008505295
5 Reciever/Unit2/n63:5 0.01087131
6 Reciever/Unit2/n63:6 0.01230399
7 Reciever/Unit2/n63:7 0.02475346
8 Reciever/Unit2/n63:8 0.06482804
9 Reciever/Unit2/n63:9 0.06626072
10 Reciever/Unit2/n63:10 0.1462973
11 Reciever/Unit2/n63:11 0.1191716
12 Reciever/Unit2/n63:12 0.070166
13 Reciever/Unit2/n63:13 0.05785581
14 Reciever/Unit2/n63:14 0.05920338
15 Reciever/Unit2/n63:15 0.05920338
16 Reciever/Unit2/n63:16 0.01093185
17 Reciever/Unit2/n63:17 0.009499175

*RES
0 Reciever\/Unit2\/U107:Y Reciever/Unit2/n63:17 1
1 Reciever/Unit2/n63:4 Reciever\/Unit2\/U87:A1 1
2 Reciever/Unit2/n63:13 Reciever/Unit2/n63:12 2.145536
3 Reciever/Unit2/n63:14 Reciever/Unit2/n63:13 0.5
4 Reciever/Unit2/n63:16 Reciever/Unit2/n63:15 0.5
5 Reciever/Unit2/n63:15 Reciever/Unit2/n63:14 2.394643
6 Reciever/Unit2/n63:17 Reciever/Unit2/n63:16 0.2325
7 Reciever/Unit2/n63:12 Reciever/Unit2/n63:11 0.5
8 Reciever/Unit2/n63:12 Reciever/Unit2/n63:4 0.2341667
9 Reciever/Unit2/n63:11 Reciever/Unit2/n63:10 5.675893
10 Reciever/Unit2/n63:9 Reciever/Unit2/n63:8 2.666071
11 Reciever/Unit2/n63:10 Reciever/Unit2/n63:9 0.5
12 Reciever/Unit2/n63:10 Reciever/Unit2/n63:7 1.061607
13 Reciever/Unit2/n63:8 Reciever\/Unit2\/U13:A 1
14 Reciever/Unit2/n63:6 Reciever/Unit2/n63:5 0.2325
15 Reciever/Unit2/n63:7 Reciever/Unit2/n63:6 0.5
16 Reciever/Unit2/n63:5 Reciever\/Unit2\/U67:A1 1

*END

*D_NET Reciever/Unit2/n64 0.5141936 //LENGTH 5.625 LUMPCC 0 DR

*CONN
*I Reciever\/Unit2\/U70:Y O *L 0 *C 24.772 9.724
*I Reciever\/Unit2\/U68:A1 I *L 0.545591 *C 20.668 10.940
*N Reciever/Unit2/n64:2 *C 20.668 10.939
*N Reciever/Unit2/n64:3 *C 20.668 10.649
*N Reciever/Unit2/n64:4 *C 20.681 10.636
*N Reciever/Unit2/n64:5 *C 24.759 10.636
*N Reciever/Unit2/n64:6 *C 24.772 10.623
*N Reciever/Unit2/n64:7 *C 24.772 9.738

*CAP
0 Reciever\/Unit2\/U70:Y 0.001
1 Reciever\/Unit2\/U68:A1 0.001
2 Reciever/Unit2/n64:2 0.01967656
3 Reciever/Unit2/n64:3 0.02110923
4 Reciever/Unit2/n64:4 0.1864751
5 Reciever/Unit2/n64:5 0.1864751
6 Reciever/Unit2/n64:6 0.04994516
7 Reciever/Unit2/n64:7 0.04851248

*RES
0 Reciever\/Unit2\/U70:Y Reciever/Unit2/n64:7 1
1 Reciever/Unit2/n64:2 Reciever\/Unit2\/U68:A1 1
2 Reciever/Unit2/n64:3 Reciever/Unit2/n64:2 0.5169644
3 Reciever/Unit2/n64:4 Reciever/Unit2/n64:3 0.5
4 Reciever/Unit2/n64:6 Reciever/Unit2/n64:5 0.5
5 Reciever/Unit2/n64:5 Reciever/Unit2/n64:4 7.280358
6 Reciever/Unit2/n64:7 Reciever/Unit2/n64:6 1.580357

*END

*D_NET Reciever/Unit2/n65 1.536183 //LENGTH 17.246 LUMPCC 0 DR

*CONN
*I Reciever\/Unit2\/U94:Y O *L 0 *C 17.628 8.964
*I Reciever\/Unit2\/U89:A1 I *L 0.467813 *C 15.804 4.556
*I Reciever\/Unit2\/U71:A1 I *L 0.467813 *C 14.132 2.732
*I Reciever\/Unit2\/U72:A1 I *L 0.467813 *C 13.220 2.732
*I Reciever\/Unit2\/U92:A1 I *L 0.467813 *C 9.572 2.732
*I Reciever\/Unit2\/U93:A2 I *L 0.684351 *C 16.135 8.052
*N Reciever/Unit2/n65:6 *C 16.108 8.013
*N Reciever/Unit2/n65:7 *C 9.572 2.719
*N Reciever/Unit2/n65:8 *C 9.572 2.442
*N Reciever/Unit2/n65:9 *C 9.585 2.428
*N Reciever/Unit2/n65:10 *C 13.220 2.719
*N Reciever/Unit2/n65:11 *C 13.220 2.428
*N Reciever/Unit2/n65:12 *C 13.371 2.428
*N Reciever/Unit2/n65:13 *C 13.372 2.428
*N Reciever/Unit2/n65:14 *C 14.132 2.428
*N Reciever/Unit2/n65:15 *C 14.132 2.731
*N Reciever/Unit2/n65:16 *C 14.132 2.746
*N Reciever/Unit2/n65:17 *C 14.132 3.631
*N Reciever/Unit2/n65:18 *C 14.146 3.644
*N Reciever/Unit2/n65:19 *C 15.791 3.644
*N Reciever/Unit2/n65:20 *C 15.804 3.658
*N Reciever/Unit2/n65:21 *C 15.804 4.556
*N Reciever/Unit2/n65:22 *C 15.804 7.292
*N Reciever/Unit2/n65:23 *C 16.108 7.306
*N Reciever/Unit2/n65:24 *C 16.122 7.292
*N Reciever/Unit2/n65:25 *C 17.614 7.292
*N Reciever/Unit2/n65:26 *C 17.628 7.306
*N Reciever/Unit2/n65:27 *C 17.628 8.950

*CAP
0 Reciever\/Unit2\/U94:Y 0.001
1 Reciever\/Unit2\/U89:A1 0.001
2 Reciever\/Unit2\/U71:A1 0.001
3 Reciever\/Unit2\/U72:A1 0.001
4 Reciever\/Unit2\/U92:A1 0.001
5 Reciever\/Unit2\/U93:A2 0.001
6 Reciever/Unit2/n65:6 0.03190809
7 Reciever/Unit2/n65:7 0.01898901
8 Reciever/Unit2/n65:8 0.02042169
9 Reciever/Unit2/n65:9 0.1746424
10 Reciever/Unit2/n65:10 0.01777298
11 Reciever/Unit2/n65:11 0.0305095
12 Reciever/Unit2/n65:12 0.006559409
13 Reciever/Unit2/n65:13 0.2098922
14 Reciever/Unit2/n65:14 0.04782445
15 Reciever/Unit2/n65:15 0.01020247
16 Reciever/Unit2/n65:16 0.04343263
17 Reciever/Unit2/n65:17 0.04723753
18 Reciever/Unit2/n65:18 0.0686156
19 Reciever/Unit2/n65:19 0.0686156
20 Reciever/Unit2/n65:20 0.04849752
21 Reciever/Unit2/n65:21 0.1738734
22 Reciever/Unit2/n65:22 0.1408554
23 Reciever/Unit2/n65:23 0.04990462
24 Reciever/Unit2/n65:24 0.05388337
25 Reciever/Unit2/n65:25 0.05388337
26 Reciever/Unit2/n65:26 0.1070174
27 Reciever/Unit2/n65:27 0.1056444

*RES
0 Reciever\/Unit2\/U94:Y Reciever/Unit2/n65:27 1
1 Reciever/Unit2/n65:6 Reciever\/Unit2\/U93:A2 0.5
2 Reciever/Unit2/n65:23 Reciever/Unit2/n65:22 0.5428572
3 Reciever/Unit2/n65:23 Reciever/Unit2/n65:6 1.263393
4 Reciever/Unit2/n65:24 Reciever/Unit2/n65:23 0.5
5 Reciever/Unit2/n65:26 Reciever/Unit2/n65:25 0.5
6 Reciever/Unit2/n65:25 Reciever/Unit2/n65:24 2.666072
7 Reciever/Unit2/n65:27 Reciever/Unit2/n65:26 2.9375
8 Reciever/Unit2/n65:21 Reciever\/Unit2\/U89:A1 1
9 Reciever/Unit2/n65:21 Reciever/Unit2/n65:20 1.604464
10 Reciever/Unit2/n65:20 Reciever/Unit2/n65:19 0.5
11 Reciever/Unit2/n65:19 Reciever/Unit2/n65:18 2.9375
12 Reciever/Unit2/n65:17 Reciever/Unit2/n65:16 1.580357
13 Reciever/Unit2/n65:18 Reciever/Unit2/n65:17 0.5
14 Reciever/Unit2/n65:16 Reciever\/Unit2\/U71:A1 1
15 Reciever/Unit2/n65:16 Reciever/Unit2/n65:15 0.5
16 Reciever/Unit2/n65:15 Reciever/Unit2/n65:14 0.5410715
17 Reciever/Unit2/n65:12 Reciever/Unit2/n65:11 0.2696429
18 Reciever/Unit2/n65:13 Reciever/Unit2/n65:12 0.5
19 Reciever/Unit2/n65:13 Reciever/Unit2/n65:9 6.761607
20 Reciever/Unit2/n65:10 Reciever\/Unit2\/U72:A1 1
21 Reciever/Unit2/n65:8 Reciever/Unit2/n65:7 0.4946429
22 Reciever/Unit2/n65:9 Reciever/Unit2/n65:8 0.5
23 Reciever/Unit2/n65:7 Reciever\/Unit2\/U92:A1 1
24 Reciever/Unit2/n65:11 Reciever/Unit2/n65:10 0.5187501
25 Reciever/Unit2/n65:22 Reciever/Unit2/n65:21 4.885715
26 Reciever/Unit2/n65:14 Reciever/Unit2/n65:13 1.357143

*END

*D_NET Reciever/Unit2/n66 1.219466 //LENGTH 13.903 LUMPCC 0 DR

*CONN
*I Reciever\/Unit2\/U93:Y O *L 0 *C 15.500 7.140
*I Reciever\/Unit2\/U89:A3 I *L 0.535173 *C 16.260 5.164
*I Reciever\/Unit2\/U71:A3 I *L 0.535173 *C 14.588 2.124
*I Reciever\/Unit2\/U72:A3 I *L 0.535173 *C 12.764 2.124
*I Reciever\/Unit2\/U92:A3 I *L 0.535173 *C 9.116 2.124
*N Reciever/Unit2/n66:5 *C 9.116 1.942
*N Reciever/Unit2/n66:6 *C 9.116 2.111
*N Reciever/Unit2/n66:7 *C 9.130 2.124
*N Reciever/Unit2/n66:8 *C 12.764 1.942
*N Reciever/Unit2/n66:9 *C 12.764 2.111
*N Reciever/Unit2/n66:10 *C 12.764 2.124
*N Reciever/Unit2/n66:11 *C 14.588 1.942
*N Reciever/Unit2/n66:12 *C 14.588 2.111
*N Reciever/Unit2/n66:13 *C 14.588 2.124
*N Reciever/Unit2/n66:14 *C 15.183 2.124
*N Reciever/Unit2/n66:15 *C 15.196 2.138
*N Reciever/Unit2/n66:16 *C 16.260 4.982
*N Reciever/Unit2/n66:17 *C 16.260 5.152
*N Reciever/Unit2/n66:18 *C 16.247 5.164
*N Reciever/Unit2/n66:19 *C 15.210 5.164
*N Reciever/Unit2/n66:20 *C 15.196 5.164
*N Reciever/Unit2/n66:21 *C 15.500 5.164
*N Reciever/Unit2/n66:22 *C 15.500 7.127

*CAP
0 Reciever\/Unit2\/U93:Y 0.001
1 Reciever\/Unit2\/U89:A3 0.001
2 Reciever\/Unit2\/U71:A3 0.001
3 Reciever\/Unit2\/U72:A3 0.001
4 Reciever\/Unit2\/U92:A3 0.001
5 Reciever/Unit2/n66:5 0.01587432
6 Reciever/Unit2/n66:6 0.009697202
7 Reciever/Unit2/n66:7 0.1553853
8 Reciever/Unit2/n66:8 0.01672556
9 Reciever/Unit2/n66:9 0.01054845
10 Reciever/Unit2/n66:10 0.2323458
11 Reciever/Unit2/n66:11 0.01640522
12 Reciever/Unit2/n66:12 0.01022811
13 Reciever/Unit2/n66:13 0.1013985
14 Reciever/Unit2/n66:14 0.024438
15 Reciever/Unit2/n66:15 0.1529792
16 Reciever/Unit2/n66:16 0.01341222
17 Reciever/Unit2/n66:17 0.007235107
18 Reciever/Unit2/n66:18 0.04285016
19 Reciever/Unit2/n66:19 0.04285016
20 Reciever/Unit2/n66:20 0.1663054
21 Reciever/Unit2/n66:21 0.1060378
22 Reciever/Unit2/n66:22 0.08974949

*RES
0 Reciever\/Unit2\/U93:Y Reciever/Unit2/n66:22 1
1 Reciever/Unit2/n66:22 Reciever/Unit2/n66:21 3.504464
2 Reciever/Unit2/n66:20 Reciever/Unit2/n66:19 0.5
3 Reciever/Unit2/n66:20 Reciever/Unit2/n66:15 5.404464
4 Reciever/Unit2/n66:19 Reciever/Unit2/n66:18 1.851786
5 Reciever/Unit2/n66:17 Reciever\/Unit2\/U89:A3 1
6 Reciever/Unit2/n66:17 Reciever/Unit2/n66:16 0.2825
7 Reciever/Unit2/n66:18 Reciever/Unit2/n66:17 0.5
8 Reciever/Unit2/n66:15 Reciever/Unit2/n66:14 0.5
9 Reciever/Unit2/n66:14 Reciever/Unit2/n66:13 1.061607
10 Reciever/Unit2/n66:12 Reciever\/Unit2\/U71:A3 1
11 Reciever/Unit2/n66:12 Reciever/Unit2/n66:11 0.2825
12 Reciever/Unit2/n66:13 Reciever/Unit2/n66:12 0.5
13 Reciever/Unit2/n66:13 Reciever/Unit2/n66:10 3.257143
14 Reciever/Unit2/n66:9 Reciever\/Unit2\/U72:A3 1
15 Reciever/Unit2/n66:9 Reciever/Unit2/n66:8 0.2825
16 Reciever/Unit2/n66:10 Reciever/Unit2/n66:9 0.5
17 Reciever/Unit2/n66:10 Reciever/Unit2/n66:7 6.49018
18 Reciever/Unit2/n66:6 Reciever\/Unit2\/U92:A3 1
19 Reciever/Unit2/n66:6 Reciever/Unit2/n66:5 0.2825
20 Reciever/Unit2/n66:7 Reciever/Unit2/n66:6 0.5
21 Reciever/Unit2/n66:21 Reciever/Unit2/n66:20 0.5428572

*END

*D_NET Reciever/Unit2/n67 0.5137212 //LENGTH 6.755 LUMPCC 0 DR

*CONN
*I Reciever\/Unit2\/U91:Y O *L 0 *C 11.396 3.492
*I Reciever\/Unit2\/U23:A2 I *L 0.973269 *C 12.612 6.076
*I Reciever\/Unit2\/U90:A1 I *L 0.492533 *C 14.284 6.228
*N Reciever/Unit2/n67:3 *C 14.284 6.228
*N Reciever/Unit2/n67:4 *C 14.284 6.368
*N Reciever/Unit2/n67:5 *C 14.271 6.380
*N Reciever/Unit2/n67:6 *C 12.612 6.090
*N Reciever/Unit2/n67:7 *C 12.612 6.367
*N Reciever/Unit2/n67:8 *C 12.612 6.380
*N Reciever/Unit2/n67:9 *C 11.410 6.380
*N Reciever/Unit2/n67:10 *C 11.396 6.367
*N Reciever/Unit2/n67:11 *C 11.396 3.506

*CAP
0 Reciever\/Unit2\/U91:Y 0.001
1 Reciever\/Unit2\/U23:A2 0.001
2 Reciever\/Unit2\/U90:A1 0.001
3 Reciever/Unit2/n67:3 0.0132814
4 Reciever/Unit2/n67:4 0.01471408
5 Reciever/Unit2/n67:5 0.057841
6 Reciever/Unit2/n67:6 0.01422965
7 Reciever/Unit2/n67:7 0.01566232
8 Reciever/Unit2/n67:8 0.1074419
9 Reciever/Unit2/n67:9 0.04722871
10 Reciever/Unit2/n67:10 0.1205751
11 Reciever/Unit2/n67:11 0.1197469

*RES
0 Reciever\/Unit2\/U91:Y Reciever/Unit2/n67:11 1
1 Reciever/Unit2/n67:4 Reciever/Unit2/n67:3 0.2325
2 Reciever/Unit2/n67:5 Reciever/Unit2/n67:4 0.5
3 Reciever/Unit2/n67:3 Reciever\/Unit2\/U90:A1 1
4 Reciever/Unit2/n67:7 Reciever/Unit2/n67:6 0.4946429
5 Reciever/Unit2/n67:8 Reciever/Unit2/n67:7 0.5
6 Reciever/Unit2/n67:8 Reciever/Unit2/n67:5 2.961608
7 Reciever/Unit2/n67:6 Reciever\/Unit2\/U23:A2 1
8 Reciever/Unit2/n67:10 Reciever/Unit2/n67:9 0.5
9 Reciever/Unit2/n67:9 Reciever/Unit2/n67:8 2.147322
10 Reciever/Unit2/n67:11 Reciever/Unit2/n67:10 5.108929

*END

*D_NET Reciever/Unit2/n68 0.5963606 //LENGTH 6.332 LUMPCC 0 DR

*CONN
*I Reciever\/Unit2\/U97:Y O *L 0 *C 20.212 9.572
*I Reciever\/Unit2\/U112:A I *L 0.577904 *C 19.604 9.420
*I Reciever\/Unit2\/U110:A4 I *L 0.588881 *C 18.487 11.244
*I Reciever\/Unit2\/U95:A1 I *L 0.545591 *C 21.580 9.724
*N Reciever/Unit2/n68:4 *C 21.580 9.725
*N Reciever/Unit2/n68:5 *C 21.580 10.014
*N Reciever/Unit2/n68:6 *C 21.567 10.028
*N Reciever/Unit2/n68:7 *C 18.540 11.244
*N Reciever/Unit2/n68:8 *C 18.540 11.231
*N Reciever/Unit2/n68:9 *C 18.540 10.042
*N Reciever/Unit2/n68:10 *C 18.553 10.028
*N Reciever/Unit2/n68:11 *C 20.212 10.028
*N Reciever/Unit2/n68:12 *C 20.212 10.014
*N Reciever/Unit2/n68:13 *C 19.605 9.420
*N Reciever/Unit2/n68:14 *C 20.212 9.420
*N Reciever/Unit2/n68:15 *C 20.212 9.572

*CAP
0 Reciever\/Unit2\/U97:Y 0.001
1 Reciever\/Unit2\/U112:A 0.001
2 Reciever\/Unit2\/U110:A4 0.01137729
3 Reciever\/Unit2\/U95:A1 0.001
4 Reciever/Unit2/n68:4 0.01777821
5 Reciever/Unit2/n68:5 0.01921088
6 Reciever/Unit2/n68:6 0.06239538
7 Reciever/Unit2/n68:7 0.009301892
8 Reciever/Unit2/n68:8 0.07420599
9 Reciever/Unit2/n68:9 0.07390918
10 Reciever/Unit2/n68:10 0.07125455
11 Reciever/Unit2/n68:11 0.1360221
12 Reciever/Unit2/n68:12 0.02344527
13 Reciever/Unit2/n68:13 0.02475882
14 Reciever/Unit2/n68:14 0.03812605
15 Reciever/Unit2/n68:15 0.03157492

*RES
0 Reciever\/Unit2\/U97:Y Reciever/Unit2/n68:15 1
1 Reciever/Unit2/n68:5 Reciever/Unit2/n68:4 0.5169644
2 Reciever/Unit2/n68:6 Reciever/Unit2/n68:5 0.5
3 Reciever/Unit2/n68:4 Reciever\/Unit2\/U95:A1 1
4 Reciever/Unit2/n68:12 Reciever/Unit2/n68:11 0.5
5 Reciever/Unit2/n68:11 Reciever/Unit2/n68:10 2.961607
6 Reciever/Unit2/n68:11 Reciever/Unit2/n68:6 2.41875
7 Reciever/Unit2/n68:15 Reciever/Unit2/n68:14 0.2714286
8 Reciever/Unit2/n68:15 Reciever/Unit2/n68:12 0.7901786
9 Reciever/Unit2/n68:13 Reciever\/Unit2\/U112:A 1
10 Reciever/Unit2/n68:9 Reciever/Unit2/n68:8 2.123214
11 Reciever/Unit2/n68:10 Reciever/Unit2/n68:9 0.5
12 Reciever/Unit2/n68:7 Reciever\/Unit2\/U110:A4 0.09166668
13 Reciever/Unit2/n68:8 Reciever/Unit2/n68:7 1
14 Reciever/Unit2/n68:14 Reciever/Unit2/n68:13 1.083929

*END

*D_NET Reciever/Unit2/n70 1.312914 //LENGTH 13.753 LUMPCC 0 DR

*CONN
*I Reciever\/Unit2\/U85:Y O *L 0 *C 24.316 2.884
*I Reciever\/Unit2\/U80:A2 I *L 0.458594 *C 30.753 3.036
*I Reciever\/Unit2\/U75:A2 I *L 0.458594 *C 32.220 4.252
*I Reciever\/Unit2\/U7:A I *L 0.577904 *C 30.852 4.556
*I Reciever\/Unit2\/U79:A3 I *L 0.520528 *C 32.524 2.124
*N Reciever/Unit2/n70:5 *C 32.524 2.138
*N Reciever/Unit2/n70:6 *C 32.524 2.719
*N Reciever/Unit2/n70:7 *C 32.511 2.732
*N Reciever/Unit2/n70:8 *C 30.852 4.543
*N Reciever/Unit2/n70:9 *C 32.220 4.239
*N Reciever/Unit2/n70:10 *C 32.220 3.658
*N Reciever/Unit2/n70:11 *C 32.206 3.644
*N Reciever/Unit2/n70:12 *C 30.866 3.644
*N Reciever/Unit2/n70:13 *C 30.852 3.644
*N Reciever/Unit2/n70:14 *C 30.700 3.036
*N Reciever/Unit2/n70:15 *C 30.701 3.036
*N Reciever/Unit2/n70:16 *C 30.852 3.036
*N Reciever/Unit2/n70:17 *C 30.852 2.746
*N Reciever/Unit2/n70:18 *C 30.852 2.732
*N Reciever/Unit2/n70:19 *C 24.329 2.732
*N Reciever/Unit2/n70:20 *C 24.316 2.732
*N Reciever/Unit2/n70:21 *C 24.316 2.872

*CAP
0 Reciever\/Unit2\/U85:Y 0.001
1 Reciever\/Unit2\/U80:A2 0.008187452
2 Reciever\/Unit2\/U75:A2 0.001
3 Reciever\/Unit2\/U7:A 0.001
4 Reciever\/Unit2\/U79:A3 0.001
5 Reciever/Unit2/n70:5 0.03674944
6 Reciever/Unit2/n70:6 0.03818213
7 Reciever/Unit2/n70:7 0.08009736
8 Reciever/Unit2/n70:8 0.06605502
9 Reciever/Unit2/n70:9 0.0423948
10 Reciever/Unit2/n70:10 0.04382748
11 Reciever/Unit2/n70:11 0.0618351
12 Reciever/Unit2/n70:12 0.0618351
13 Reciever/Unit2/n70:13 0.1059865
14 Reciever/Unit2/n70:14 0.006112054
15 Reciever/Unit2/n70:15 0.006802612
16 Reciever/Unit2/n70:16 0.06911463
17 Reciever/Unit2/n70:17 0.01936559
18 Reciever/Unit2/n70:18 0.3612093
19 Reciever/Unit2/n70:19 0.2787398
20 Reciever/Unit2/n70:20 0.01192637
21 Reciever/Unit2/n70:21 0.01049369

*RES
0 Reciever\/Unit2\/U85:Y Reciever/Unit2/n70:21 1
1 Reciever/Unit2/n70:6 Reciever/Unit2/n70:5 1.0375
2 Reciever/Unit2/n70:7 Reciever/Unit2/n70:6 0.5
3 Reciever/Unit2/n70:5 Reciever\/Unit2\/U79:A3 1
4 Reciever/Unit2/n70:8 Reciever\/Unit2\/U7:A 1
5 Reciever/Unit2/n70:13 Reciever/Unit2/n70:12 0.5
6 Reciever/Unit2/n70:13 Reciever/Unit2/n70:8 1.604464
7 Reciever/Unit2/n70:12 Reciever/Unit2/n70:11 2.394643
8 Reciever/Unit2/n70:10 Reciever/Unit2/n70:9 1.0375
9 Reciever/Unit2/n70:11 Reciever/Unit2/n70:10 0.5
10 Reciever/Unit2/n70:9 Reciever\/Unit2\/U75:A2 1
11 Reciever/Unit2/n70:17 Reciever/Unit2/n70:16 0.5187501
12 Reciever/Unit2/n70:18 Reciever/Unit2/n70:17 0.5
13 Reciever/Unit2/n70:18 Reciever/Unit2/n70:7 2.961607
14 Reciever/Unit2/n70:14 Reciever\/Unit2\/U80:A2 0.09166668
15 Reciever/Unit2/n70:15 Reciever/Unit2/n70:14 1
16 Reciever/Unit2/n70:20 Reciever/Unit2/n70:19 0.5
17 Reciever/Unit2/n70:19 Reciever/Unit2/n70:18 11.64732
18 Reciever/Unit2/n70:21 Reciever/Unit2/n70:20 0.2325
19 Reciever/Unit2/n70:16 Reciever/Unit2/n70:15 0.2696429
20 Reciever/Unit2/n70:16 Reciever/Unit2/n70:13 1.085714

*END

*D_NET Reciever/Unit2/n71 0.3687095 //LENGTH 4.287 LUMPCC 0 DR

*CONN
*I Reciever\/Unit2\/U74:Y O *L 0 *C 31.460 7.748
*I Reciever\/Unit2\/U75:A4 I *L 0.545401 *C 32.372 4.708
*N Reciever/Unit2/n71:2 *C 32.372 4.721
*N Reciever/Unit2/n71:3 *C 32.372 7.583
*N Reciever/Unit2/n71:4 *C 32.358 7.596
*N Reciever/Unit2/n71:5 *C 31.474 7.596
*N Reciever/Unit2/n71:6 *C 31.460 7.596
*N Reciever/Unit2/n71:7 *C 31.460 7.736

*CAP
0 Reciever\/Unit2\/U74:Y 0.001
1 Reciever\/Unit2\/U75:A4 0.001
2 Reciever/Unit2/n71:2 0.1434121
3 Reciever/Unit2/n71:3 0.1448448
4 Reciever/Unit2/n71:4 0.03190381
5 Reciever/Unit2/n71:5 0.03190381
6 Reciever/Unit2/n71:6 0.008038846
7 Reciever/Unit2/n71:7 0.006606168

*RES
0 Reciever\/Unit2\/U74:Y Reciever/Unit2/n71:7 1
1 Reciever/Unit2/n71:2 Reciever\/Unit2\/U75:A4 1
2 Reciever/Unit2/n71:3 Reciever/Unit2/n71:2 5.108929
3 Reciever/Unit2/n71:4 Reciever/Unit2/n71:3 0.5
4 Reciever/Unit2/n71:6 Reciever/Unit2/n71:5 0.5
5 Reciever/Unit2/n71:5 Reciever/Unit2/n71:4 1.580357
6 Reciever/Unit2/n71:7 Reciever/Unit2/n71:6 0.2325

*END

*D_NET Reciever/Unit2/n72 0.300036 //LENGTH 3.983 LUMPCC 0 DR

*CONN
*I Reciever\/Unit2\/U76:Y O *L 0 *C 31.156 6.228
*I Reciever\/Unit2\/U74:A2 I *L 0.973269 *C 33.132 7.900
*N Reciever/Unit2/n72:2 *C 33.132 7.887
*N Reciever/Unit2/n72:3 *C 33.132 6.394
*N Reciever/Unit2/n72:4 *C 33.119 6.380
*N Reciever/Unit2/n72:5 *C 31.170 6.380
*N Reciever/Unit2/n72:6 *C 31.156 6.368
*N Reciever/Unit2/n72:7 *C 31.156 6.228

*CAP
0 Reciever\/Unit2\/U76:Y 0.001
1 Reciever\/Unit2\/U74:A2 0.001
2 Reciever/Unit2/n72:2 0.06834195
3 Reciever/Unit2/n72:3 0.06977463
4 Reciever/Unit2/n72:4 0.06824393
5 Reciever/Unit2/n72:5 0.06824393
6 Reciever/Unit2/n72:6 0.01243209
7 Reciever/Unit2/n72:7 0.01099942

*RES
0 Reciever\/Unit2\/U76:Y Reciever/Unit2/n72:7 1
1 Reciever/Unit2/n72:2 Reciever\/Unit2\/U74:A2 1
2 Reciever/Unit2/n72:3 Reciever/Unit2/n72:2 2.666071
3 Reciever/Unit2/n72:4 Reciever/Unit2/n72:3 0.5
4 Reciever/Unit2/n72:6 Reciever/Unit2/n72:5 0.5
5 Reciever/Unit2/n72:5 Reciever/Unit2/n72:4 3.480358
6 Reciever/Unit2/n72:7 Reciever/Unit2/n72:6 0.2325

*END

*D_NET Reciever/Unit2/n73 0.2692462 //LENGTH 3.198 LUMPCC 0 DR

*CONN
*I Reciever\/Unit2\/U79:Y O *L 0 *C 32.980 3.036
*I Reciever\/Unit2\/U77:A2 I *L 0.458594 *C 33.588 0.908
*N Reciever/Unit2/n73:2 *C 33.588 0.726
*N Reciever/Unit2/n73:3 *C 33.588 0.896
*N Reciever/Unit2/n73:4 *C 33.575 0.908
*N Reciever/Unit2/n73:5 *C 32.994 0.908
*N Reciever/Unit2/n73:6 *C 32.980 0.922
*N Reciever/Unit2/n73:7 *C 32.980 3.022

*CAP
0 Reciever\/Unit2\/U79:Y 0.001
1 Reciever\/Unit2\/U77:A2 0.001
2 Reciever/Unit2/n73:2 0.01754365
3 Reciever/Unit2/n73:3 0.01136653
4 Reciever/Unit2/n73:4 0.023701
5 Reciever/Unit2/n73:5 0.023701
6 Reciever/Unit2/n73:6 0.09618337
7 Reciever/Unit2/n73:7 0.09475069

*RES
0 Reciever\/Unit2\/U79:Y Reciever/Unit2/n73:7 1
1 Reciever/Unit2/n73:3 Reciever\/Unit2\/U77:A2 1
2 Reciever/Unit2/n73:3 Reciever/Unit2/n73:2 0.2825
3 Reciever/Unit2/n73:4 Reciever/Unit2/n73:3 0.5
4 Reciever/Unit2/n73:6 Reciever/Unit2/n73:5 0.5
5 Reciever/Unit2/n73:5 Reciever/Unit2/n73:4 1.0375
6 Reciever/Unit2/n73:7 Reciever/Unit2/n73:6 3.751786

*END

*D_NET Reciever/Unit2/n74 0.1769433 //LENGTH 1.982 LUMPCC 0 DR

*CONN
*I Reciever\/Unit2\/U78:Y O *L 0 *C 32.676 1.516
*I Reciever\/Unit2\/U77:A3 I *L 0.535173 *C 33.892 1.820
*N Reciever/Unit2/n74:2 *C 33.892 1.638
*N Reciever/Unit2/n74:3 *C 33.892 1.808
*N Reciever/Unit2/n74:4 *C 33.879 1.820
*N Reciever/Unit2/n74:5 *C 32.690 1.820
*N Reciever/Unit2/n74:6 *C 32.676 1.806
*N Reciever/Unit2/n74:7 *C 32.676 1.530

*CAP
0 Reciever\/Unit2\/U78:Y 0.001
1 Reciever\/Unit2\/U77:A3 0.001
2 Reciever/Unit2/n74:2 0.01455325
3 Reciever/Unit2/n74:3 0.00837614
4 Reciever/Unit2/n74:4 0.05989658
5 Reciever/Unit2/n74:5 0.05989658
6 Reciever/Unit2/n74:6 0.0168267
7 Reciever/Unit2/n74:7 0.01539402

*RES
0 Reciever\/Unit2\/U78:Y Reciever/Unit2/n74:7 1
1 Reciever/Unit2/n74:3 Reciever\/Unit2\/U77:A3 1
2 Reciever/Unit2/n74:3 Reciever/Unit2/n74:2 0.2825
3 Reciever/Unit2/n74:4 Reciever/Unit2/n74:3 0.5
4 Reciever/Unit2/n74:6 Reciever/Unit2/n74:5 0.5
5 Reciever/Unit2/n74:5 Reciever/Unit2/n74:4 2.123214
6 Reciever/Unit2/n74:7 Reciever/Unit2/n74:6 0.4946429

*END

*D_NET Reciever/Unit2/n75 0.2553448 //LENGTH 2.914 LUMPCC 0 DR

*CONN
*I Reciever\/Unit2\/U82:Y O *L 0 *C 28.724 6.228
*I Reciever\/Unit2\/U81:A2 I *L 0.458594 *C 29.940 7.596
*N Reciever/Unit2/n75:2 *C 29.940 7.583
*N Reciever/Unit2/n75:3 *C 29.940 6.698
*N Reciever/Unit2/n75:4 *C 29.927 6.684
*N Reciever/Unit2/n75:5 *C 28.738 6.684
*N Reciever/Unit2/n75:6 *C 28.724 6.671
*N Reciever/Unit2/n75:7 *C 28.724 6.242

*CAP
0 Reciever\/Unit2\/U82:Y 0.001
1 Reciever\/Unit2\/U81:A2 0.001
2 Reciever/Unit2/n75:2 0.05321634
3 Reciever/Unit2/n75:3 0.05464902
4 Reciever/Unit2/n75:4 0.04593599
5 Reciever/Unit2/n75:5 0.04593599
6 Reciever/Unit2/n75:6 0.02752006
7 Reciever/Unit2/n75:7 0.02608738

*RES
0 Reciever\/Unit2\/U82:Y Reciever/Unit2/n75:7 1
1 Reciever/Unit2/n75:2 Reciever\/Unit2\/U81:A2 1
2 Reciever/Unit2/n75:3 Reciever/Unit2/n75:2 1.580357
3 Reciever/Unit2/n75:4 Reciever/Unit2/n75:3 0.5
4 Reciever/Unit2/n75:6 Reciever/Unit2/n75:5 0.5
5 Reciever/Unit2/n75:5 Reciever/Unit2/n75:4 2.123214
6 Reciever/Unit2/n75:7 Reciever/Unit2/n75:6 0.7660714

*END

*D_NET Reciever/Unit2/n76 0.2994194 //LENGTH 3.547 LUMPCC 0 DR

*CONN
*I Reciever\/Unit2\/U83:Y O *L 0 *C 27.356 6.228
*I Reciever\/Unit2\/U82:A2 I *L 0.46235 *C 28.420 6.076
*I Reciever\/Unit2\/U8:A I *L 0.577904 *C 30.092 6.076
*N Reciever/Unit2/n76:3 *C 30.092 5.894
*N Reciever/Unit2/n76:4 *C 30.092 6.064
*N Reciever/Unit2/n76:5 *C 30.079 6.076
*N Reciever/Unit2/n76:6 *C 28.420 5.944
*N Reciever/Unit2/n76:7 *C 28.420 6.064
*N Reciever/Unit2/n76:8 *C 28.420 6.076
*N Reciever/Unit2/n76:9 *C 27.370 6.076
*N Reciever/Unit2/n76:10 *C 27.356 6.076
*N Reciever/Unit2/n76:11 *C 27.356 6.216

*CAP
0 Reciever\/Unit2\/U83:Y 0.001
1 Reciever\/Unit2\/U82:A2 0.001
2 Reciever\/Unit2\/U8:A 0.001
3 Reciever/Unit2/n76:3 0.01478077
4 Reciever/Unit2/n76:4 0.008603654
5 Reciever/Unit2/n76:5 0.07179954
6 Reciever/Unit2/n76:6 0.01201924
7 Reciever/Unit2/n76:7 0.004038222
8 Reciever/Unit2/n76:8 0.1186631
9 Reciever/Unit2/n76:9 0.04646821
10 Reciever/Unit2/n76:10 0.01073965
11 Reciever/Unit2/n76:11 0.009306972

*RES
0 Reciever\/Unit2\/U83:Y Reciever/Unit2/n76:11 1
1 Reciever/Unit2/n76:4 Reciever\/Unit2\/U8:A 1
2 Reciever/Unit2/n76:4 Reciever/Unit2/n76:3 0.2825
3 Reciever/Unit2/n76:5 Reciever/Unit2/n76:4 0.5
4 Reciever/Unit2/n76:7 Reciever\/Unit2\/U82:A2 1
5 Reciever/Unit2/n76:7 Reciever/Unit2/n76:6 0.1991667
6 Reciever/Unit2/n76:8 Reciever/Unit2/n76:7 0.5
7 Reciever/Unit2/n76:8 Reciever/Unit2/n76:5 2.961607
8 Reciever/Unit2/n76:10 Reciever/Unit2/n76:9 0.5
9 Reciever/Unit2/n76:9 Reciever/Unit2/n76:8 1.875893
10 Reciever/Unit2/n76:11 Reciever/Unit2/n76:10 0.2325

*END

*D_NET Reciever/Unit2/n77 0.3341555 //LENGTH 3.908 LUMPCC 0 DR

*CONN
*I Reciever\/Unit2\/U84:Y O *L 0 *C 23.860 6.380
*I Reciever\/Unit2\/U83:A2 I *L 0.46235 *C 27.052 6.076
*N Reciever/Unit2/n77:2 *C 27.052 5.944
*N Reciever/Unit2/n77:3 *C 27.052 6.064
*N Reciever/Unit2/n77:4 *C 27.039 6.076
*N Reciever/Unit2/n77:5 *C 23.873 6.076
*N Reciever/Unit2/n77:6 *C 23.860 6.090
*N Reciever/Unit2/n77:7 *C 23.860 6.367

*CAP
0 Reciever\/Unit2\/U84:Y 0.001
1 Reciever\/Unit2\/U83:A2 0.001
2 Reciever/Unit2/n77:2 0.01411577
3 Reciever/Unit2/n77:3 0.006134756
4 Reciever/Unit2/n77:4 0.1327454
5 Reciever/Unit2/n77:5 0.1347222
6 Reciever/Unit2/n77:6 0.02293504
7 Reciever/Unit2/n77:7 0.02150237

*RES
0 Reciever\/Unit2\/U84:Y Reciever/Unit2/n77:7 1
1 Reciever/Unit2/n77:3 Reciever\/Unit2\/U83:A2 1
2 Reciever/Unit2/n77:3 Reciever/Unit2/n77:2 0.1991667
3 Reciever/Unit2/n77:4 Reciever/Unit2/n77:3 0.5
4 Reciever/Unit2/n77:6 Reciever/Unit2/n77:5 0.5
5 Reciever/Unit2/n77:5 Reciever/Unit2/n77:4 5.651786
6 Reciever/Unit2/n77:7 Reciever/Unit2/n77:6 0.4946429

*END

*D_NET Reciever/Unit2/n78 0.892509 //LENGTH 10.168 LUMPCC 0 DR

*CONN
*I Reciever\/Unit2\/U102:Y O *L 0 *C 26.900 7.292
*I Reciever\/Unit2\/U84:A3 I *L 0.520528 *C 23.404 5.468
*I Reciever\/Unit2\/U101:A5 I *L 0.523436 *C 20.212 4.556
*N Reciever/Unit2/n78:3 *C 20.212 4.570
*N Reciever/Unit2/n78:4 *C 20.212 5.759
*N Reciever/Unit2/n78:5 *C 20.226 5.772
*N Reciever/Unit2/n78:6 *C 23.404 5.482
*N Reciever/Unit2/n78:7 *C 23.404 5.759
*N Reciever/Unit2/n78:8 *C 23.404 5.772
*N Reciever/Unit2/n78:9 *C 26.887 5.772
*N Reciever/Unit2/n78:10 *C 26.900 5.785
*N Reciever/Unit2/n78:11 *C 26.900 7.279

*CAP
0 Reciever\/Unit2\/U102:Y 0.001
1 Reciever\/Unit2\/U84:A3 0.001
2 Reciever\/Unit2\/U101:A5 0.001
3 Reciever/Unit2/n78:3 0.07555489
4 Reciever/Unit2/n78:4 0.07698757
5 Reciever/Unit2/n78:5 0.1378426
6 Reciever/Unit2/n78:6 0.01662229
7 Reciever/Unit2/n78:7 0.01805497
8 Reciever/Unit2/n78:8 0.2821222
9 Reciever/Unit2/n78:9 0.1419074
10 Reciever/Unit2/n78:10 0.07092489
11 Reciever/Unit2/n78:11 0.06949221

*RES
0 Reciever\/Unit2\/U102:Y Reciever/Unit2/n78:11 1
1 Reciever/Unit2/n78:10 Reciever/Unit2/n78:9 0.5
2 Reciever/Unit2/n78:9 Reciever/Unit2/n78:8 6.21875
3 Reciever/Unit2/n78:11 Reciever/Unit2/n78:10 2.666071
4 Reciever/Unit2/n78:7 Reciever/Unit2/n78:6 0.4946429
5 Reciever/Unit2/n78:8 Reciever/Unit2/n78:7 0.5
6 Reciever/Unit2/n78:8 Reciever/Unit2/n78:5 5.675893
7 Reciever/Unit2/n78:6 Reciever\/Unit2\/U84:A3 1
8 Reciever/Unit2/n78:4 Reciever/Unit2/n78:3 2.123214
9 Reciever/Unit2/n78:5 Reciever/Unit2/n78:4 0.5
10 Reciever/Unit2/n78:3 Reciever\/Unit2\/U101:A5 1

*END

*D_NET Reciever/Unit2/n79 0.3238406 //LENGTH 3.313 LUMPCC 0 DR

*CONN
*I Reciever\/Unit2\/U88:Y O *L 0 *C 22.340 6.228
*I Reciever\/Unit2\/U87:A2 I *L 0.529633 *C 21.884 4.556
*I Reciever\/Unit2\/U11:A I *L 0.577904 *C 21.276 6.076
*N Reciever/Unit2/n79:3 *C 21.276 5.894
*N Reciever/Unit2/n79:4 *C 21.276 6.064
*N Reciever/Unit2/n79:5 *C 21.290 6.076
*N Reciever/Unit2/n79:6 *C 21.884 4.570
*N Reciever/Unit2/n79:7 *C 21.884 6.062
*N Reciever/Unit2/n79:8 *C 21.884 6.076
*N Reciever/Unit2/n79:9 *C 22.326 6.076
*N Reciever/Unit2/n79:10 *C 22.340 6.076
*N Reciever/Unit2/n79:11 *C 22.340 6.216

*CAP
0 Reciever\/Unit2\/U88:Y 0.001
1 Reciever\/Unit2\/U87:A2 0.001
2 Reciever\/Unit2\/U11:A 0.001
3 Reciever/Unit2/n79:3 0.01725453
4 Reciever/Unit2/n79:4 0.01107742
5 Reciever/Unit2/n79:5 0.02831314
6 Reciever/Unit2/n79:6 0.08467187
7 Reciever/Unit2/n79:7 0.08610455
8 Reciever/Unit2/n79:8 0.05196353
9 Reciever/Unit2/n79:9 0.02127818
10 Reciever/Unit2/n79:10 0.01080503
11 Reciever/Unit2/n79:11 0.009372349

*RES
0 Reciever\/Unit2\/U88:Y Reciever/Unit2/n79:11 1
1 Reciever/Unit2/n79:10 Reciever/Unit2/n79:9 0.5
2 Reciever/Unit2/n79:9 Reciever/Unit2/n79:8 0.7901786
3 Reciever/Unit2/n79:11 Reciever/Unit2/n79:10 0.2325
4 Reciever/Unit2/n79:7 Reciever/Unit2/n79:6 2.666071
5 Reciever/Unit2/n79:8 Reciever/Unit2/n79:7 0.5
6 Reciever/Unit2/n79:8 Reciever/Unit2/n79:5 1.061607
7 Reciever/Unit2/n79:6 Reciever\/Unit2\/U87:A2 1
8 Reciever/Unit2/n79:4 Reciever\/Unit2\/U11:A 1
9 Reciever/Unit2/n79:4 Reciever/Unit2/n79:3 0.2825
10 Reciever/Unit2/n79:5 Reciever/Unit2/n79:4 0.5

*END

*D_NET Reciever/Unit2/n80 0.2456807 //LENGTH 2.585 LUMPCC 0 DR

*CONN
*I Reciever\/Unit2\/U86:Y O *L 0 *C 23.708 4.556
*I Reciever\/Unit2\/U85:A1 I *L 0.545591 *C 24.468 3.036
*N Reciever/Unit2/n80:2 *C 24.468 3.037
*N Reciever/Unit2/n80:3 *C 24.468 3.935
*N Reciever/Unit2/n80:4 *C 24.454 3.948
*N Reciever/Unit2/n80:5 *C 23.722 3.948
*N Reciever/Unit2/n80:6 *C 23.708 3.962
*N Reciever/Unit2/n80:7 *C 23.708 4.543

*CAP
0 Reciever\/Unit2\/U86:Y 0.001
1 Reciever\/Unit2\/U85:A1 0.001
2 Reciever/Unit2/n80:2 0.05757325
3 Reciever/Unit2/n80:3 0.05900593
4 Reciever/Unit2/n80:4 0.03303098
5 Reciever/Unit2/n80:5 0.03303098
6 Reciever/Unit2/n80:6 0.03123613
7 Reciever/Unit2/n80:7 0.02980345

*RES
0 Reciever\/Unit2\/U86:Y Reciever/Unit2/n80:7 1
1 Reciever/Unit2/n80:2 Reciever\/Unit2\/U85:A1 1
2 Reciever/Unit2/n80:3 Reciever/Unit2/n80:2 1.602679
3 Reciever/Unit2/n80:4 Reciever/Unit2/n80:3 0.5
4 Reciever/Unit2/n80:6 Reciever/Unit2/n80:5 0.5
5 Reciever/Unit2/n80:5 Reciever/Unit2/n80:4 1.308929
6 Reciever/Unit2/n80:7 Reciever/Unit2/n80:6 1.0375

*END

*D_NET Reciever/Unit2/n81 0.7571265 //LENGTH 8.045 LUMPCC 0 DR

*CONN
*I Reciever\/Unit2\/U106:Y O *L 0 *C 25.836 1.060
*I Reciever\/Unit2\/U86:A1 I *L 0.654877 *C 23.860 4.404
*I Reciever\/Unit2\/U16:A I *L 0.577904 *C 26.292 6.076
*N Reciever/Unit2/n81:3 *C 26.292 6.062
*N Reciever/Unit2/n81:4 *C 26.292 4.266
*N Reciever/Unit2/n81:5 *C 26.279 4.252
*N Reciever/Unit2/n81:6 *C 23.860 4.392
*N Reciever/Unit2/n81:7 *C 23.860 4.252
*N Reciever/Unit2/n81:8 *C 23.873 4.252
*N Reciever/Unit2/n81:9 *C 25.836 4.252
*N Reciever/Unit2/n81:10 *C 25.836 4.239
*N Reciever/Unit2/n81:11 *C 25.836 1.074

*CAP
0 Reciever\/Unit2\/U106:Y 0.001
1 Reciever\/Unit2\/U86:A1 0.001
2 Reciever\/Unit2\/U16:A 0.001
3 Reciever/Unit2/n81:3 0.08888461
4 Reciever/Unit2/n81:4 0.09031729
5 Reciever/Unit2/n81:5 0.01841731
6 Reciever/Unit2/n81:6 0.01228281
7 Reciever/Unit2/n81:7 0.01371549
8 Reciever/Unit2/n81:8 0.08662935
9 Reciever/Unit2/n81:9 0.1074189
10 Reciever/Unit2/n81:10 0.1689467
11 Reciever/Unit2/n81:11 0.167514

*RES
0 Reciever\/Unit2\/U106:Y Reciever/Unit2/n81:11 1
1 Reciever/Unit2/n81:4 Reciever/Unit2/n81:3 3.208929
2 Reciever/Unit2/n81:5 Reciever/Unit2/n81:4 0.5
3 Reciever/Unit2/n81:3 Reciever\/Unit2\/U16:A 1
4 Reciever/Unit2/n81:10 Reciever/Unit2/n81:9 0.5
5 Reciever/Unit2/n81:9 Reciever/Unit2/n81:8 3.504464
6 Reciever/Unit2/n81:9 Reciever/Unit2/n81:5 0.7901785
7 Reciever/Unit2/n81:11 Reciever/Unit2/n81:10 5.651786
8 Reciever/Unit2/n81:7 Reciever/Unit2/n81:6 0.2325
9 Reciever/Unit2/n81:8 Reciever/Unit2/n81:7 0.5
10 Reciever/Unit2/n81:6 Reciever\/Unit2\/U86:A1 1

*END

*D_NET Reciever/Unit2/n82 0.2077373 //LENGTH 2.421 LUMPCC 0 DR

*CONN
*I Reciever\/Unit2\/U87:Y O *L 0 *C 22.492 3.796
*I Reciever\/Unit2\/U86:A3 I *L 0.55484 *C 24.164 4.404
*N Reciever/Unit2/n82:2 *C 24.164 4.391
*N Reciever/Unit2/n82:3 *C 24.164 3.796
*N Reciever/Unit2/n82:4 *C 22.493 3.796

*CAP
0 Reciever\/Unit2\/U87:Y 0.001
1 Reciever\/Unit2\/U86:A3 0.001
2 Reciever/Unit2/n82:2 0.03711574
3 Reciever/Unit2/n82:3 0.1063713
4 Reciever/Unit2/n82:4 0.06225024

*RES
0 Reciever\/Unit2\/U87:Y Reciever/Unit2/n82:4 1
1 Reciever/Unit2/n82:2 Reciever\/Unit2\/U86:A3 1
2 Reciever/Unit2/n82:4 Reciever/Unit2/n82:3 2.983929
3 Reciever/Unit2/n82:3 Reciever/Unit2/n82:2 1.061607

*END

*D_NET Reciever/Unit2/n83 0.6004109 //LENGTH 6.632 LUMPCC 0 DR

*CONN
*I Reciever\/Unit2\/U104:Y O *L 0 *C 26.748 1.060
*I Reciever\/Unit2\/U17:A I *L 0.577904 *C 25.228 4.556
*I Reciever\/Unit2\/U86:A4 I *L 0.540252 *C 24.316 4.556
*N Reciever/Unit2/n83:3 *C 24.316 4.374
*N Reciever/Unit2/n83:4 *C 24.316 4.543
*N Reciever/Unit2/n83:5 *C 24.329 4.556
*N Reciever/Unit2/n83:6 *C 25.228 4.374
*N Reciever/Unit2/n83:7 *C 25.228 4.543
*N Reciever/Unit2/n83:8 *C 25.228 4.556
*N Reciever/Unit2/n83:9 *C 26.735 4.556
*N Reciever/Unit2/n83:10 *C 26.748 4.543
*N Reciever/Unit2/n83:11 *C 26.748 1.074

*CAP
0 Reciever\/Unit2\/U104:Y 0.001
1 Reciever\/Unit2\/U17:A 0.001
2 Reciever\/Unit2\/U86:A4 0.001
3 Reciever/Unit2/n83:3 0.02044951
4 Reciever/Unit2/n83:4 0.01427239
5 Reciever/Unit2/n83:5 0.03833722
6 Reciever/Unit2/n83:6 0.01286939
7 Reciever/Unit2/n83:7 0.00669228
8 Reciever/Unit2/n83:8 0.1005959
9 Reciever/Unit2/n83:9 0.05988644
10 Reciever/Unit2/n83:10 0.1728702
11 Reciever/Unit2/n83:11 0.1714375

*RES
0 Reciever\/Unit2\/U104:Y Reciever/Unit2/n83:11 1
1 Reciever/Unit2/n83:10 Reciever/Unit2/n83:9 0.5
2 Reciever/Unit2/n83:9 Reciever/Unit2/n83:8 2.690179
3 Reciever/Unit2/n83:11 Reciever/Unit2/n83:10 6.194643
4 Reciever/Unit2/n83:7 Reciever\/Unit2\/U17:A 1
5 Reciever/Unit2/n83:7 Reciever/Unit2/n83:6 0.2825
6 Reciever/Unit2/n83:8 Reciever/Unit2/n83:7 0.5
7 Reciever/Unit2/n83:8 Reciever/Unit2/n83:5 1.604464
8 Reciever/Unit2/n83:4 Reciever\/Unit2\/U86:A4 1
9 Reciever/Unit2/n83:4 Reciever/Unit2/n83:3 0.2825
10 Reciever/Unit2/n83:5 Reciever/Unit2/n83:4 0.5

*END

*D_NET Reciever/Unit2/n84 0.9696965 //LENGTH 10.777 LUMPCC 0 DR

*CONN
*I Reciever\/Unit2\/U103:Y O *L 0 *C 26.292 9.572
*I Reciever\/Unit2\/U102:A4 I *L 0.545401 *C 27.508 8.052
*I Reciever\/Unit2\/U100:A2 I *L 0.484089 *C 24.772 8.052
*I Reciever\/Unit2\/U12:A I *L 0.577904 *C 23.252 7.900
*I Reciever\/Unit2\/U88:A1 I *L 0.545591 *C 22.188 6.380
*N Reciever/Unit2/n84:5 *C 22.188 6.381
*N Reciever/Unit2/n84:6 *C 22.188 7.583
*N Reciever/Unit2/n84:7 *C 22.201 7.596
*N Reciever/Unit2/n84:8 *C 23.252 7.887
*N Reciever/Unit2/n84:9 *C 23.252 7.610
*N Reciever/Unit2/n84:10 *C 23.252 7.596
*N Reciever/Unit2/n84:11 *C 24.772 8.039
*N Reciever/Unit2/n84:12 *C 24.772 7.610
*N Reciever/Unit2/n84:13 *C 24.772 7.596
*N Reciever/Unit2/n84:14 *C 26.279 7.596
*N Reciever/Unit2/n84:15 *C 26.292 7.610
*N Reciever/Unit2/n84:16 *C 27.508 8.066
*N Reciever/Unit2/n84:17 *C 27.508 8.799
*N Reciever/Unit2/n84:18 *C 27.495 8.812
*N Reciever/Unit2/n84:19 *C 26.306 8.812
*N Reciever/Unit2/n84:20 *C 26.292 8.812
*N Reciever/Unit2/n84:21 *C 26.292 9.559

*CAP
0 Reciever\/Unit2\/U103:Y 0.001
1 Reciever\/Unit2\/U102:A4 0.001
2 Reciever\/Unit2\/U100:A2 0.001
3 Reciever\/Unit2\/U12:A 0.001
4 Reciever\/Unit2\/U88:A1 0.001
5 Reciever/Unit2/n84:5 0.05705494
6 Reciever/Unit2/n84:6 0.05848762
7 Reciever/Unit2/n84:7 0.04370679
8 Reciever/Unit2/n84:8 0.01561745
9 Reciever/Unit2/n84:9 0.01705013
10 Reciever/Unit2/n84:10 0.1068359
11 Reciever/Unit2/n84:11 0.0308153
12 Reciever/Unit2/n84:12 0.03224798
13 Reciever/Unit2/n84:13 0.1229024
14 Reciever/Unit2/n84:14 0.05977321
15 Reciever/Unit2/n84:15 0.06643911
16 Reciever/Unit2/n84:16 0.04391384
17 Reciever/Unit2/n84:17 0.04534652
18 Reciever/Unit2/n84:18 0.0618925
19 Reciever/Unit2/n84:19 0.0618925
20 Reciever/Unit2/n84:20 0.1054822
21 Reciever/Unit2/n84:21 0.03523817

*RES
0 Reciever\/Unit2\/U103:Y Reciever/Unit2/n84:21 1
1 Reciever/Unit2/n84:21 Reciever/Unit2/n84:20 1.333036
2 Reciever/Unit2/n84:20 Reciever/Unit2/n84:19 0.5
3 Reciever/Unit2/n84:20 Reciever/Unit2/n84:15 2.147321
4 Reciever/Unit2/n84:19 Reciever/Unit2/n84:18 2.123214
5 Reciever/Unit2/n84:17 Reciever/Unit2/n84:16 1.308929
6 Reciever/Unit2/n84:18 Reciever/Unit2/n84:17 0.5
7 Reciever/Unit2/n84:16 Reciever\/Unit2\/U102:A4 1
8 Reciever/Unit2/n84:15 Reciever/Unit2/n84:14 0.5
9 Reciever/Unit2/n84:14 Reciever/Unit2/n84:13 2.690179
10 Reciever/Unit2/n84:12 Reciever/Unit2/n84:11 0.7660714
11 Reciever/Unit2/n84:13 Reciever/Unit2/n84:12 0.5
12 Reciever/Unit2/n84:13 Reciever/Unit2/n84:10 2.714286
13 Reciever/Unit2/n84:11 Reciever\/Unit2\/U100:A2 1
14 Reciever/Unit2/n84:9 Reciever/Unit2/n84:8 0.4946429
15 Reciever/Unit2/n84:10 Reciever/Unit2/n84:9 0.5
16 Reciever/Unit2/n84:10 Reciever/Unit2/n84:7 1.875893
17 Reciever/Unit2/n84:8 Reciever\/Unit2\/U12:A 1
18 Reciever/Unit2/n84:6 Reciever/Unit2/n84:5 2.145536
19 Reciever/Unit2/n84:7 Reciever/Unit2/n84:6 0.5
20 Reciever/Unit2/n84:5 Reciever\/Unit2\/U88:A1 1

*END

*D_NET Reciever/Unit2/n85 1.162656 //LENGTH 12.632 LUMPCC 0 DR

*CONN
*I Reciever\/Unit2\/U109:Y O *L 0 *C 16.564 2.884
*I Reciever\/Unit2\/U15:A I *L 0.577904 *C 19.604 2.732
*I Reciever\/Unit2\/U99:A2 I *L 0.546428 *C 21.428 7.748
*I Reciever\/Unit2\/U88:A2 I *L 0.46235 *C 22.036 6.076
*N Reciever/Unit2/n85:4 *C 22.036 6.075
*N Reciever/Unit2/n85:5 *C 22.036 5.482
*N Reciever/Unit2/n85:6 *C 22.023 5.468
*N Reciever/Unit2/n85:7 *C 21.428 7.735
*N Reciever/Unit2/n85:8 *C 21.428 5.482
*N Reciever/Unit2/n85:9 *C 21.428 5.468
*N Reciever/Unit2/n85:10 *C 19.314 5.468
*N Reciever/Unit2/n85:11 *C 19.300 5.455
*N Reciever/Unit2/n85:12 *C 19.604 2.746
*N Reciever/Unit2/n85:13 *C 19.604 3.340
*N Reciever/Unit2/n85:14 *C 19.300 3.340
*N Reciever/Unit2/n85:15 *C 19.287 3.340
*N Reciever/Unit2/n85:16 *C 16.578 3.340
*N Reciever/Unit2/n85:17 *C 16.564 3.327
*N Reciever/Unit2/n85:18 *C 16.564 2.897

*CAP
0 Reciever\/Unit2\/U109:Y 0.001
1 Reciever\/Unit2\/U15:A 0.001
2 Reciever\/Unit2\/U99:A2 0.001
3 Reciever\/Unit2\/U88:A2 0.001
4 Reciever/Unit2/n85:4 0.03819098
5 Reciever/Unit2/n85:5 0.03945071
6 Reciever/Unit2/n85:6 0.0255433
7 Reciever/Unit2/n85:7 0.1311206
8 Reciever/Unit2/n85:8 0.1325533
9 Reciever/Unit2/n85:9 0.1127529
10 Reciever/Unit2/n85:10 0.08483735
11 Reciever/Unit2/n85:11 0.1146513
12 Reciever/Unit2/n85:12 0.02977023
13 Reciever/Unit2/n85:13 0.04814567
14 Reciever/Unit2/n85:14 0.1292218
15 Reciever/Unit2/n85:15 0.1005082
16 Reciever/Unit2/n85:16 0.1005082
17 Reciever/Unit2/n85:17 0.03641712
18 Reciever/Unit2/n85:18 0.03498444

*RES
0 Reciever\/Unit2\/U109:Y Reciever/Unit2/n85:18 1
1 Reciever/Unit2/n85:5 Reciever/Unit2/n85:4 1.059821
2 Reciever/Unit2/n85:6 Reciever/Unit2/n85:5 0.5
3 Reciever/Unit2/n85:4 Reciever\/Unit2\/U88:A2 1
4 Reciever/Unit2/n85:8 Reciever/Unit2/n85:7 4.023215
5 Reciever/Unit2/n85:9 Reciever/Unit2/n85:8 0.5
6 Reciever/Unit2/n85:9 Reciever/Unit2/n85:6 1.061607
7 Reciever/Unit2/n85:7 Reciever\/Unit2\/U99:A2 1
8 Reciever/Unit2/n85:12 Reciever\/Unit2\/U15:A 1
9 Reciever/Unit2/n85:11 Reciever/Unit2/n85:10 0.5
10 Reciever/Unit2/n85:10 Reciever/Unit2/n85:9 3.775893
11 Reciever/Unit2/n85:14 Reciever/Unit2/n85:13 0.5428571
12 Reciever/Unit2/n85:14 Reciever/Unit2/n85:11 3.775893
13 Reciever/Unit2/n85:15 Reciever/Unit2/n85:14 0.5
14 Reciever/Unit2/n85:17 Reciever/Unit2/n85:16 0.5
15 Reciever/Unit2/n85:16 Reciever/Unit2/n85:15 4.837501
16 Reciever/Unit2/n85:18 Reciever/Unit2/n85:17 0.7660714
17 Reciever/Unit2/n85:13 Reciever/Unit2/n85:12 1.061607

*END

*D_NET Reciever/Unit2/n86 0.334314 //LENGTH 3.674 LUMPCC 0 DR

*CONN
*I Reciever\/Unit2\/U96:Y O *L 0 *C 23.860 10.028
*I Reciever\/Unit2\/U95:A2 I *L 0.46235 *C 21.732 9.420
*N Reciever/Unit2/n86:2 *C 21.732 9.407
*N Reciever/Unit2/n86:3 *C 21.732 9.130
*N Reciever/Unit2/n86:4 *C 21.745 9.116
*N Reciever/Unit2/n86:5 *C 23.847 9.116
*N Reciever/Unit2/n86:6 *C 23.860 9.130
*N Reciever/Unit2/n86:7 *C 23.860 10.014

*CAP
0 Reciever\/Unit2\/U96:Y 0.001
1 Reciever\/Unit2\/U95:A2 0.001
2 Reciever/Unit2/n86:2 0.01923195
3 Reciever/Unit2/n86:3 0.02066462
4 Reciever/Unit2/n86:4 0.08459964
5 Reciever/Unit2/n86:5 0.08459964
6 Reciever/Unit2/n86:6 0.06229553
7 Reciever/Unit2/n86:7 0.06092257

*RES
0 Reciever\/Unit2\/U96:Y Reciever/Unit2/n86:7 1
1 Reciever/Unit2/n86:2 Reciever\/Unit2\/U95:A2 1
2 Reciever/Unit2/n86:3 Reciever/Unit2/n86:2 0.4946429
3 Reciever/Unit2/n86:4 Reciever/Unit2/n86:3 0.5
4 Reciever/Unit2/n86:6 Reciever/Unit2/n86:5 0.5
5 Reciever/Unit2/n86:5 Reciever/Unit2/n86:4 3.751786
6 Reciever/Unit2/n86:7 Reciever/Unit2/n86:6 1.580357

*END

*D_NET Reciever/Unit2/n87 0.3118954 //LENGTH 3.649 LUMPCC 0 DR

*CONN
*I Reciever\/Unit2\/U98:Y O *L 0 *C 19.148 7.596
*I Reciever\/Unit2\/U97:A1 I *L 0.545591 *C 20.364 9.724
*N Reciever/Unit2/n87:2 *C 20.364 9.723
*N Reciever/Unit2/n87:3 *C 20.364 9.130
*N Reciever/Unit2/n87:4 *C 20.351 9.116
*N Reciever/Unit2/n87:5 *C 19.162 9.116
*N Reciever/Unit2/n87:6 *C 19.148 9.103
*N Reciever/Unit2/n87:7 *C 19.148 7.610

*CAP
0 Reciever\/Unit2\/U98:Y 0.001
1 Reciever\/Unit2\/U97:A1 0.001
2 Reciever/Unit2/n87:2 0.03625417
3 Reciever/Unit2/n87:3 0.03768685
4 Reciever/Unit2/n87:4 0.0548096
5 Reciever/Unit2/n87:5 0.0548096
6 Reciever/Unit2/n87:6 0.06388393
7 Reciever/Unit2/n87:7 0.06245125

*RES
0 Reciever\/Unit2\/U98:Y Reciever/Unit2/n87:7 1
1 Reciever/Unit2/n87:2 Reciever\/Unit2\/U97:A1 1
2 Reciever/Unit2/n87:3 Reciever/Unit2/n87:2 1.059821
3 Reciever/Unit2/n87:4 Reciever/Unit2/n87:3 0.5
4 Reciever/Unit2/n87:6 Reciever/Unit2/n87:5 0.5
5 Reciever/Unit2/n87:5 Reciever/Unit2/n87:4 2.123214
6 Reciever/Unit2/n87:7 Reciever/Unit2/n87:6 2.666071

*END

*D_NET Reciever/Unit2/n88 0.5123277 //LENGTH 5.295 LUMPCC 0 DR

*CONN
*I Reciever\/Unit2\/U105:Y O *L 0 *C 28.724 5.164
*I Reciever\/Unit2\/U102:A2 I *L 0.458594 *C 27.660 7.596
*I Reciever\/Unit2\/U18:A I *L 0.577904 *C 28.724 7.900
*N Reciever/Unit2/n88:3 *C 28.724 7.887
*N Reciever/Unit2/n88:4 *C 27.660 7.583
*N Reciever/Unit2/n88:5 *C 27.660 7.002
*N Reciever/Unit2/n88:6 *C 27.674 6.988
*N Reciever/Unit2/n88:7 *C 28.710 6.988
*N Reciever/Unit2/n88:8 *C 28.724 6.988
*N Reciever/Unit2/n88:9 *C 28.876 6.988
*N Reciever/Unit2/n88:10 *C 28.876 6.076
*N Reciever/Unit2/n88:11 *C 28.724 6.076
*N Reciever/Unit2/n88:12 *C 28.724 5.178

*CAP
0 Reciever\/Unit2\/U105:Y 0.001
1 Reciever\/Unit2\/U102:A2 0.001
2 Reciever\/Unit2\/U18:A 0.001
3 Reciever/Unit2/n88:3 0.04198834
4 Reciever/Unit2/n88:4 0.04306148
5 Reciever/Unit2/n88:5 0.04449416
6 Reciever/Unit2/n88:6 0.04130717
7 Reciever/Unit2/n88:7 0.04130717
8 Reciever/Unit2/n88:8 0.05158042
9 Reciever/Unit2/n88:9 0.0670077
10 Reciever/Unit2/n88:10 0.06732294
11 Reciever/Unit2/n88:11 0.06161328
12 Reciever/Unit2/n88:12 0.04964505

*RES
0 Reciever\/Unit2\/U105:Y Reciever/Unit2/n88:12 1
1 Reciever/Unit2/n88:3 Reciever\/Unit2\/U18:A 1
2 Reciever/Unit2/n88:12 Reciever/Unit2/n88:11 1.604464
3 Reciever/Unit2/n88:8 Reciever/Unit2/n88:7 0.5
4 Reciever/Unit2/n88:8 Reciever/Unit2/n88:3 1.604464
5 Reciever/Unit2/n88:7 Reciever/Unit2/n88:6 1.851786
6 Reciever/Unit2/n88:5 Reciever/Unit2/n88:4 1.0375
7 Reciever/Unit2/n88:6 Reciever/Unit2/n88:5 0.5
8 Reciever/Unit2/n88:4 Reciever\/Unit2\/U102:A2 1
9 Reciever/Unit2/n88:11 Reciever/Unit2/n88:10 0.2714286
10 Reciever/Unit2/n88:10 Reciever/Unit2/n88:9 1.628572
11 Reciever/Unit2/n88:9 Reciever/Unit2/n88:8 0.2714286

*END

*D_NET Reciever/Unit2/n89 0.165894 //LENGTH 1.830 LUMPCC 0 DR

*CONN
*I Reciever\/Unit2\/U34:Y O *L 0 *C 22.644 10.940
*I Reciever\/Unit2\/recieved_flag_reg:D I *L 0.540554 *C 23.556 11.396
*N Reciever/Unit2/n89:2 *C 22.644 10.758
*N Reciever/Unit2/n89:3 *C 23.556 11.383
*N Reciever/Unit2/n89:4 *C 23.556 10.954
*N Reciever/Unit2/n89:5 *C 23.543 10.940
*N Reciever/Unit2/n89:6 *C 22.658 10.940
*N Reciever/Unit2/n89:7 *C 22.644 10.928

*CAP
0 Reciever\/Unit2\/U34:Y 0.001
1 Reciever\/Unit2\/recieved_flag_reg:D 0.001
2 Reciever/Unit2/n89:2 0.01322832
3 Reciever/Unit2/n89:3 0.02317224
4 Reciever/Unit2/n89:4 0.02460492
5 Reciever/Unit2/n89:5 0.04791865
6 Reciever/Unit2/n89:6 0.04791865
7 Reciever/Unit2/n89:7 0.007051201

*RES
0 Reciever\/Unit2\/U34:Y Reciever/Unit2/n89:7 1
1 Reciever/Unit2/n89:3 Reciever\/Unit2\/recieved_flag_reg:D 1
2 Reciever/Unit2/n89:4 Reciever/Unit2/n89:3 0.7660714
3 Reciever/Unit2/n89:5 Reciever/Unit2/n89:4 0.5
4 Reciever/Unit2/n89:7 Reciever/Unit2/n89:6 0.5
5 Reciever/Unit2/n89:7 Reciever/Unit2/n89:2 0.2825
6 Reciever/Unit2/n89:6 Reciever/Unit2/n89:5 1.580357

*END

*D_NET Reciever/Unit2/n90 0.3704016 //LENGTH 3.485 LUMPCC 0 DR

*CONN
*I Reciever\/Unit2\/U35:Y O *L 0 *C 19.908 15.196
*I Reciever\/Unit2\/data_parll_reg[10]:D I *L 0.540554 *C 19.452 18.084
*N Reciever/Unit2/n90:2 *C 19.453 18.084
*N Reciever/Unit2/n90:3 *C 19.908 18.084
*N Reciever/Unit2/n90:4 *C 19.908 15.210

*CAP
0 Reciever\/Unit2\/U35:Y 0.001
1 Reciever\/Unit2\/data_parll_reg[10]:D 0.001
2 Reciever/Unit2/n90:2 0.01868855
3 Reciever/Unit2/n90:3 0.1871755
4 Reciever/Unit2/n90:4 0.1625375

*RES
0 Reciever\/Unit2\/U35:Y Reciever/Unit2/n90:4 1
1 Reciever/Unit2/n90:2 Reciever\/Unit2\/data_parll_reg[10]:D 1
2 Reciever/Unit2/n90:4 Reciever/Unit2/n90:3 5.133036
3 Reciever/Unit2/n90:3 Reciever/Unit2/n90:2 0.8125

*END

*D_NET Reciever/Unit2/n91 0.196469 //LENGTH 2.610 LUMPCC 0 DR

*CONN
*I Reciever\/Unit2\/U37:Y O *L 0 *C 8.204 14.284
*I Reciever\/Unit2\/data_parll_reg[9]:D I *L 0.540554 *C 8.812 15.956
*N Reciever/Unit2/n91:2 *C 8.812 15.943
*N Reciever/Unit2/n91:3 *C 8.812 14.905
*N Reciever/Unit2/n91:4 *C 8.799 14.892
*N Reciever/Unit2/n91:5 *C 8.218 14.892
*N Reciever/Unit2/n91:6 *C 8.204 14.879
*N Reciever/Unit2/n91:7 *C 8.204 14.298

*CAP
0 Reciever\/Unit2\/U37:Y 0.001
1 Reciever\/Unit2\/data_parll_reg[9]:D 0.001
2 Reciever/Unit2/n91:2 0.04180727
3 Reciever/Unit2/n91:3 0.04323995
4 Reciever/Unit2/n91:4 0.02681955
5 Reciever/Unit2/n91:5 0.02681955
6 Reciever/Unit2/n91:6 0.02860768
7 Reciever/Unit2/n91:7 0.027175

*RES
0 Reciever\/Unit2\/U37:Y Reciever/Unit2/n91:7 1
1 Reciever/Unit2/n91:2 Reciever\/Unit2\/data_parll_reg[9]:D 1
2 Reciever/Unit2/n91:3 Reciever/Unit2/n91:2 1.851786
3 Reciever/Unit2/n91:4 Reciever/Unit2/n91:3 0.5
4 Reciever/Unit2/n91:6 Reciever/Unit2/n91:5 0.5
5 Reciever/Unit2/n91:5 Reciever/Unit2/n91:4 1.0375
6 Reciever/Unit2/n91:7 Reciever/Unit2/n91:6 1.0375

*END

*D_NET Reciever/Unit2/n92 0.3003455 //LENGTH 3.978 LUMPCC 0 DR

*CONN
*I Reciever\/Unit2\/U39:Y O *L 0 *C 2.124 3.036
*I Reciever\/Unit2\/data_parll_reg[8]:D I *L 0.540554 *C 4.100 1.364
*N Reciever/Unit2/n92:2 *C 4.100 1.378
*N Reciever/Unit2/n92:3 *C 4.100 1.806
*N Reciever/Unit2/n92:4 *C 4.087 1.820
*N Reciever/Unit2/n92:5 *C 2.138 1.820
*N Reciever/Unit2/n92:6 *C 2.124 1.834
*N Reciever/Unit2/n92:7 *C 2.124 3.022

*CAP
0 Reciever\/Unit2\/U39:Y 0.001
1 Reciever\/Unit2\/data_parll_reg[8]:D 0.001
2 Reciever/Unit2/n92:2 0.02002928
3 Reciever/Unit2/n92:3 0.02146196
4 Reciever/Unit2/n92:4 0.06683937
5 Reciever/Unit2/n92:5 0.06683937
6 Reciever/Unit2/n92:6 0.06230411
7 Reciever/Unit2/n92:7 0.06087143

*RES
0 Reciever\/Unit2\/U39:Y Reciever/Unit2/n92:7 1
1 Reciever/Unit2/n92:2 Reciever\/Unit2\/data_parll_reg[8]:D 1
2 Reciever/Unit2/n92:3 Reciever/Unit2/n92:2 0.7660714
3 Reciever/Unit2/n92:4 Reciever/Unit2/n92:3 0.5
4 Reciever/Unit2/n92:6 Reciever/Unit2/n92:5 0.5
5 Reciever/Unit2/n92:5 Reciever/Unit2/n92:4 3.480357
6 Reciever/Unit2/n92:7 Reciever/Unit2/n92:6 2.123214

*END

*D_NET Reciever/Unit2/n93 0.4496064 //LENGTH 5.959 LUMPCC 0 DR

*CONN
*I Reciever\/Unit2\/U43:Y O *L 0 *C 4.860 14.284
*I Reciever\/Unit2\/data_parll_reg[7]:D I *L 0.540554 *C 0.908 15.956
*N Reciever/Unit2/n93:2 *C 0.908 15.944
*N Reciever/Unit2/n93:3 *C 0.908 15.804
*N Reciever/Unit2/n93:4 *C 0.922 15.804
*N Reciever/Unit2/n93:5 *C 4.846 15.804
*N Reciever/Unit2/n93:6 *C 4.860 15.791
*N Reciever/Unit2/n93:7 *C 4.860 14.298

*CAP
0 Reciever\/Unit2\/U43:Y 0.001
1 Reciever\/Unit2\/data_parll_reg[7]:D 0.001
2 Reciever/Unit2/n93:2 0.01435325
3 Reciever/Unit2/n93:3 0.01578593
4 Reciever/Unit2/n93:4 0.1411392
5 Reciever/Unit2/n93:5 0.1411392
6 Reciever/Unit2/n93:6 0.06831079
7 Reciever/Unit2/n93:7 0.06687811

*RES
0 Reciever\/Unit2\/U43:Y Reciever/Unit2/n93:7 1
1 Reciever/Unit2/n93:2 Reciever\/Unit2\/data_parll_reg[7]:D 1
2 Reciever/Unit2/n93:3 Reciever/Unit2/n93:2 0.2325
3 Reciever/Unit2/n93:4 Reciever/Unit2/n93:3 0.5
4 Reciever/Unit2/n93:6 Reciever/Unit2/n93:5 0.5
5 Reciever/Unit2/n93:5 Reciever/Unit2/n93:4 7.008929
6 Reciever/Unit2/n93:7 Reciever/Unit2/n93:6 2.666071

*END

*D_NET Reciever/Unit2/n94 0.3963279 //LENGTH 4.786 LUMPCC 0 DR

*CONN
*I Reciever\/Unit2\/U46:Y O *L 0 *C 3.948 8.508
*I Reciever\/Unit2\/data_parll_reg[6]:D I *L 0.540554 *C 0.592 9.268
*N Reciever/Unit2/n94:2 *C 0.465 9.268
*N Reciever/Unit2/n94:3 *C 0.452 9.255
*N Reciever/Unit2/n94:4 *C 0.452 9.116
*N Reciever/Unit2/n94:5 *C 0.466 9.116
*N Reciever/Unit2/n94:6 *C 3.935 9.116
*N Reciever/Unit2/n94:7 *C 3.948 9.103
*N Reciever/Unit2/n94:8 *C 3.948 8.521

*CAP
0 Reciever\/Unit2\/U46:Y 0.001
1 Reciever\/Unit2\/data_parll_reg[6]:D 0.01547292
2 Reciever/Unit2/n94:2 0.01339752
3 Reciever/Unit2/n94:3 0.01266371
4 Reciever/Unit2/n94:4 0.01236689
5 Reciever/Unit2/n94:5 0.1375499
6 Reciever/Unit2/n94:6 0.1375499
7 Reciever/Unit2/n94:7 0.03304966
8 Reciever/Unit2/n94:8 0.0332773

*RES
0 Reciever\/Unit2\/U46:Y Reciever/Unit2/n94:8 1
1 Reciever/Unit2/n94:2 Reciever\/Unit2\/data_parll_reg[6]:D 0.2116667
2 Reciever/Unit2/n94:3 Reciever/Unit2/n94:2 1
3 Reciever/Unit2/n94:4 Reciever/Unit2/n94:3 0.2325
4 Reciever/Unit2/n94:5 Reciever/Unit2/n94:4 0.5
5 Reciever/Unit2/n94:7 Reciever/Unit2/n94:6 0.5
6 Reciever/Unit2/n94:6 Reciever/Unit2/n94:5 6.194643
7 Reciever/Unit2/n94:8 Reciever/Unit2/n94:7 1.0375

*END

*D_NET Reciever/Unit2/n95 0.4259241 //LENGTH 4.439 LUMPCC 0 DR

*CONN
*I Reciever\/Unit2\/U49:Y O *L 0 *C 3.644 13.524
*I Reciever\/Unit2\/data_parll_reg[5]:D I *L 0.540554 *C 0.756 14.740
*N Reciever/Unit2/n95:2 *C 0.756 14.728
*N Reciever/Unit2/n95:3 *C 0.756 14.588
*N Reciever/Unit2/n95:4 *C 0.770 14.588
*N Reciever/Unit2/n95:5 *C 3.631 14.588
*N Reciever/Unit2/n95:6 *C 3.644 14.575
*N Reciever/Unit2/n95:7 *C 3.644 13.538

*CAP
0 Reciever\/Unit2\/U49:Y 0.001
1 Reciever\/Unit2\/data_parll_reg[5]:D 0.001
2 Reciever/Unit2/n95:2 0.01706945
3 Reciever/Unit2/n95:3 0.01850213
4 Reciever/Unit2/n95:4 0.119431
5 Reciever/Unit2/n95:5 0.119431
6 Reciever/Unit2/n95:6 0.0753059
7 Reciever/Unit2/n95:7 0.07418453

*RES
0 Reciever\/Unit2\/U49:Y Reciever/Unit2/n95:7 1
1 Reciever/Unit2/n95:2 Reciever\/Unit2\/data_parll_reg[5]:D 1
2 Reciever/Unit2/n95:3 Reciever/Unit2/n95:2 0.2325
3 Reciever/Unit2/n95:4 Reciever/Unit2/n95:3 0.5
4 Reciever/Unit2/n95:6 Reciever/Unit2/n95:5 0.5
5 Reciever/Unit2/n95:5 Reciever/Unit2/n95:4 5.108929
6 Reciever/Unit2/n95:7 Reciever/Unit2/n95:6 1.851786

*END

*D_NET Reciever/Unit2/n96 0.2015378 //LENGTH 2.306 LUMPCC 0 DR

*CONN
*I Reciever\/Unit2\/U52:Y O *L 0 *C 11.244 14.284
*I Reciever\/Unit2\/data_parll_reg[4]:D I *L 0.540554 *C 11.548 15.956
*N Reciever/Unit2/n96:2 *C 11.548 15.943
*N Reciever/Unit2/n96:3 *C 11.548 15.514
*N Reciever/Unit2/n96:4 *C 11.535 15.500
*N Reciever/Unit2/n96:5 *C 11.258 15.500
*N Reciever/Unit2/n96:6 *C 11.244 15.487
*N Reciever/Unit2/n96:7 *C 11.244 14.298

*CAP
0 Reciever\/Unit2\/U52:Y 0.001
1 Reciever\/Unit2\/data_parll_reg[4]:D 0.001
2 Reciever/Unit2/n96:2 0.02736294
3 Reciever/Unit2/n96:3 0.02879561
4 Reciever/Unit2/n96:4 0.01509436
5 Reciever/Unit2/n96:5 0.01509436
6 Reciever/Unit2/n96:6 0.05731161
7 Reciever/Unit2/n96:7 0.05587893

*RES
0 Reciever\/Unit2\/U52:Y Reciever/Unit2/n96:7 1
1 Reciever/Unit2/n96:2 Reciever\/Unit2\/data_parll_reg[4]:D 1
2 Reciever/Unit2/n96:3 Reciever/Unit2/n96:2 0.7660715
3 Reciever/Unit2/n96:4 Reciever/Unit2/n96:3 0.5
4 Reciever/Unit2/n96:6 Reciever/Unit2/n96:5 0.5
5 Reciever/Unit2/n96:5 Reciever/Unit2/n96:4 0.4946429
6 Reciever/Unit2/n96:7 Reciever/Unit2/n96:6 2.123214

*END

*D_NET Reciever/Unit2/n97 0.2663318 //LENGTH 3.071 LUMPCC 0 DR

*CONN
*I Reciever\/Unit2\/U54:Y O *L 0 *C 13.068 14.284
*I Reciever\/Unit2\/data_parll_reg[3]:D I *L 0.540554 *C 15.044 14.740
*N Reciever/Unit2/n97:2 *C 15.044 14.740
*N Reciever/Unit2/n97:3 *C 15.044 14.880
*N Reciever/Unit2/n97:4 *C 15.030 14.892
*N Reciever/Unit2/n97:5 *C 13.082 14.892
*N Reciever/Unit2/n97:6 *C 13.068 14.879
*N Reciever/Unit2/n97:7 *C 13.068 14.298

*CAP
0 Reciever\/Unit2\/U54:Y 0.001
1 Reciever\/Unit2\/data_parll_reg[3]:D 0.001
2 Reciever/Unit2/n97:2 0.00898475
3 Reciever/Unit2/n97:3 0.01041743
4 Reciever/Unit2/n97:4 0.09345673
5 Reciever/Unit2/n97:5 0.09345673
6 Reciever/Unit2/n97:6 0.0297244
7 Reciever/Unit2/n97:7 0.02829172

*RES
0 Reciever\/Unit2\/U54:Y Reciever/Unit2/n97:7 1
1 Reciever/Unit2/n97:2 Reciever\/Unit2\/data_parll_reg[3]:D 1
2 Reciever/Unit2/n97:3 Reciever/Unit2/n97:2 0.2325
3 Reciever/Unit2/n97:4 Reciever/Unit2/n97:3 0.5
4 Reciever/Unit2/n97:6 Reciever/Unit2/n97:5 0.5
5 Reciever/Unit2/n97:5 Reciever/Unit2/n97:4 3.480357
6 Reciever/Unit2/n97:7 Reciever/Unit2/n97:6 1.0375

*END

*D_NET Reciever/Unit2/n98 0.5077077 //LENGTH 5.456 LUMPCC 0 DR

*CONN
*I Reciever\/Unit2\/U57:Y O *L 0 *C 4.708 6.380
*I Reciever\/Unit2\/data_parll_reg[2]:D I *L 0.540554 *C 3.340 2.702
*N Reciever/Unit2/n98:2 *C 3.340 2.732
*N Reciever/Unit2/n98:3 *C 3.340 2.746
*N Reciever/Unit2/n98:4 *C 3.340 4.543
*N Reciever/Unit2/n98:5 *C 3.354 4.556
*N Reciever/Unit2/n98:6 *C 4.695 4.556
*N Reciever/Unit2/n98:7 *C 4.708 4.570
*N Reciever/Unit2/n98:8 *C 4.708 6.367

*CAP
0 Reciever\/Unit2\/U57:Y 0.001
1 Reciever\/Unit2\/data_parll_reg[2]:D 0.006560211
2 Reciever/Unit2/n98:2 0.004484813
3 Reciever/Unit2/n98:3 0.08444864
4 Reciever/Unit2/n98:4 0.08415182
5 Reciever/Unit2/n98:5 0.0506807
6 Reciever/Unit2/n98:6 0.0506807
7 Reciever/Unit2/n98:7 0.1135667
8 Reciever/Unit2/n98:8 0.1121341

*RES
0 Reciever\/Unit2\/U57:Y Reciever/Unit2/n98:8 1
1 Reciever/Unit2/n98:2 Reciever\/Unit2\/data_parll_reg[2]:D 0.02727273
2 Reciever/Unit2/n98:3 Reciever/Unit2/n98:2 1
3 Reciever/Unit2/n98:4 Reciever/Unit2/n98:3 3.208929
4 Reciever/Unit2/n98:5 Reciever/Unit2/n98:4 0.5
5 Reciever/Unit2/n98:7 Reciever/Unit2/n98:6 0.5
6 Reciever/Unit2/n98:6 Reciever/Unit2/n98:5 2.394643
7 Reciever/Unit2/n98:8 Reciever/Unit2/n98:7 3.208929

*END

*D_NET Reciever/Unit2/n99 0.1818745 //LENGTH 2.264 LUMPCC 0 DR

*CONN
*I Reciever\/Unit2\/U60:Y O *L 0 *C 9.724 16.716
*I Reciever\/Unit2\/data_parll_reg[1]:D I *L 0.540554 *C 9.116 17.962
*N Reciever/Unit2/n99:2 *C 9.116 17.932
*N Reciever/Unit2/n99:3 *C 9.116 17.919
*N Reciever/Unit2/n99:4 *C 9.116 17.642
*N Reciever/Unit2/n99:5 *C 9.130 17.628
*N Reciever/Unit2/n99:6 *C 9.710 17.628
*N Reciever/Unit2/n99:7 *C 9.724 17.614
*N Reciever/Unit2/n99:8 *C 9.724 16.730

*CAP
0 Reciever\/Unit2\/U60:Y 0.001
1 Reciever\/Unit2\/data_parll_reg[1]:D 0.006010787
2 Reciever/Unit2/n99:2 0.003935389
3 Reciever/Unit2/n99:3 0.0155299
4 Reciever/Unit2/n99:4 0.01523308
5 Reciever/Unit2/n99:5 0.02789601
6 Reciever/Unit2/n99:6 0.02789601
7 Reciever/Unit2/n99:7 0.042903
8 Reciever/Unit2/n99:8 0.04147032

*RES
0 Reciever\/Unit2\/U60:Y Reciever/Unit2/n99:8 1
1 Reciever/Unit2/n99:2 Reciever\/Unit2\/data_parll_reg[1]:D 0.02727273
2 Reciever/Unit2/n99:3 Reciever/Unit2/n99:2 1
3 Reciever/Unit2/n99:4 Reciever/Unit2/n99:3 0.4946429
4 Reciever/Unit2/n99:5 Reciever/Unit2/n99:4 0.5
5 Reciever/Unit2/n99:7 Reciever/Unit2/n99:6 0.5
6 Reciever/Unit2/n99:6 Reciever/Unit2/n99:5 1.0375
7 Reciever/Unit2/n99:8 Reciever/Unit2/n99:7 1.580357

*END

*D_NET Reciever/Unit2/n100 0.2120059 //LENGTH 2.590 LUMPCC 0 DR

*CONN
*I Reciever\/Unit2\/U66:Y O *L 0 *C 19.148 13.068
*I Reciever\/Unit2\/data_parll_reg[0]:D I *L 0.540554 *C 20.820 12.612
*N Reciever/Unit2/n100:2 *C 19.148 12.886
*N Reciever/Unit2/n100:3 *C 20.820 12.626
*N Reciever/Unit2/n100:4 *C 20.820 13.055
*N Reciever/Unit2/n100:5 *C 20.806 13.068
*N Reciever/Unit2/n100:6 *C 19.162 13.068
*N Reciever/Unit2/n100:7 *C 19.148 13.056

*CAP
0 Reciever\/Unit2\/U66:Y 0.001
1 Reciever\/Unit2\/data_parll_reg[0]:D 0.001
2 Reciever/Unit2/n100:2 0.01222697
3 Reciever/Unit2/n100:3 0.02253394
4 Reciever/Unit2/n100:4 0.02396662
5 Reciever/Unit2/n100:5 0.07261425
6 Reciever/Unit2/n100:6 0.07261425
7 Reciever/Unit2/n100:7 0.006049853

*RES
0 Reciever\/Unit2\/U66:Y Reciever/Unit2/n100:7 1
1 Reciever/Unit2/n100:3 Reciever\/Unit2\/data_parll_reg[0]:D 1
2 Reciever/Unit2/n100:4 Reciever/Unit2/n100:3 0.7660715
3 Reciever/Unit2/n100:5 Reciever/Unit2/n100:4 0.5
4 Reciever/Unit2/n100:7 Reciever/Unit2/n100:6 0.5
5 Reciever/Unit2/n100:7 Reciever/Unit2/n100:2 0.2825
6 Reciever/Unit2/n100:6 Reciever/Unit2/n100:5 2.9375

*END

*D_NET Reciever/Unit2/n101 0.2960202 //LENGTH 3.370 LUMPCC 0 DR

*CONN
*I Reciever\/Unit2\/U71:Y O *L 0 *C 15.044 3.036
*I Reciever\/Unit2\/frame_counter_reg[1]:D I *L 0.540554 *C 16.412 1.364
*N Reciever/Unit2/n101:2 *C 16.412 1.378
*N Reciever/Unit2/n101:3 *C 16.412 1.806
*N Reciever/Unit2/n101:4 *C 16.399 1.820
*N Reciever/Unit2/n101:5 *C 15.058 1.820
*N Reciever/Unit2/n101:6 *C 15.044 1.834
*N Reciever/Unit2/n101:7 *C 15.044 3.022

*CAP
0 Reciever\/Unit2\/U71:Y 0.001
1 Reciever\/Unit2\/frame_counter_reg[1]:D 0.001
2 Reciever/Unit2/n101:2 0.02020542
3 Reciever/Unit2/n101:3 0.0216381
4 Reciever/Unit2/n101:4 0.05219016
5 Reciever/Unit2/n101:5 0.05219016
6 Reciever/Unit2/n101:6 0.0746145
7 Reciever/Unit2/n101:7 0.07318182

*RES
0 Reciever\/Unit2\/U71:Y Reciever/Unit2/n101:7 1
1 Reciever/Unit2/n101:2 Reciever\/Unit2\/frame_counter_reg[1]:D 1
2 Reciever/Unit2/n101:3 Reciever/Unit2/n101:2 0.7660714
3 Reciever/Unit2/n101:4 Reciever/Unit2/n101:3 0.5
4 Reciever/Unit2/n101:6 Reciever/Unit2/n101:5 0.5
5 Reciever/Unit2/n101:5 Reciever/Unit2/n101:4 2.394643
6 Reciever/Unit2/n101:7 Reciever/Unit2/n101:6 2.123214

*END

*D_NET Reciever/Unit2/n102 0.1604593 //LENGTH 1.782 LUMPCC 0 DR

*CONN
*I Reciever\/Unit2\/U72:Y O *L 0 *C 12.308 3.036
*I Reciever\/Unit2\/frame_counter_reg[2]:D I *L 0.540554 *C 12.308 1.364
*N Reciever/Unit2/n102:2 *C 12.308 1.378
*N Reciever/Unit2/n102:3 *C 12.308 3.022

*CAP
0 Reciever\/Unit2\/U72:Y 0.001
1 Reciever\/Unit2\/frame_counter_reg[2]:D 0.001
2 Reciever/Unit2/n102:2 0.07922963
3 Reciever/Unit2/n102:3 0.07922963

*RES
0 Reciever\/Unit2\/U72:Y Reciever/Unit2/n102:3 1
1 Reciever/Unit2/n102:2 Reciever\/Unit2\/frame_counter_reg[2]:D 1
2 Reciever/Unit2/n102:3 Reciever/Unit2/n102:2 2.9375

*END

*D_NET Reciever/Unit2/n103 0.1321121 //LENGTH 1.332 LUMPCC 0 DR

*CONN
*I Reciever\/Unit2\/U110:Y O *L 0 *C 17.498 11.468
*I Reciever\/Unit2\/active_flag_reg:D I *L 0.540554 *C 17.020 11.396
*N Reciever/Unit2/n103:2 *C 17.476 11.543
*N Reciever/Unit2/n103:3 *C 17.020 11.396
*N Reciever/Unit2/n103:4 *C 17.020 11.536
*N Reciever/Unit2/n103:5 *C 17.034 11.548
*N Reciever/Unit2/n103:6 *C 17.463 11.548
*N Reciever/Unit2/n103:7 *C 17.476 11.536
*N Reciever/Unit2/n103:8 *C 17.476 11.396
*N Reciever/Unit2/n103:9 *C 17.497 11.468

*CAP
0 Reciever\/Unit2\/U110:Y 0.001
1 Reciever\/Unit2\/active_flag_reg:D 0.001
2 Reciever/Unit2/n103:2 0.01849468
3 Reciever/Unit2/n103:3 0.009909716
4 Reciever/Unit2/n103:4 0.01134239
5 Reciever/Unit2/n103:5 0.02085124
6 Reciever/Unit2/n103:6 0.02085124
7 Reciever/Unit2/n103:7 0.01770287
8 Reciever/Unit2/n103:8 0.01627019
9 Reciever/Unit2/n103:9 0.01468978

*RES
0 Reciever\/Unit2\/U110:Y Reciever/Unit2/n103:9 0.01
1 Reciever/Unit2/n103:3 Reciever\/Unit2\/active_flag_reg:D 1
2 Reciever/Unit2/n103:4 Reciever/Unit2/n103:3 0.2325
3 Reciever/Unit2/n103:5 Reciever/Unit2/n103:4 0.5
4 Reciever/Unit2/n103:7 Reciever/Unit2/n103:6 0.5
5 Reciever/Unit2/n103:6 Reciever/Unit2/n103:5 0.7660714
6 Reciever/Unit2/n103:8 Reciever/Unit2/n103:7 0.2325
7 Reciever/Unit2/n103:9 Reciever/Unit2/n103:8 1
8 Reciever/Unit2/n103:9 Reciever/Unit2/n103:2 0.06845455

*END

*D_NET Reciever/Unit2/n104 0.1412836 //LENGTH 1.755 LUMPCC 0 DR

*CONN
*I Reciever\/Unit2\/U75:Y O *L 0 *C 32.980 4.252
*I Reciever\/Unit2\/stop_count_reg[2]:D I *L 0.540554 *C 33.892 4.708
*N Reciever/Unit2/n104:2 *C 32.980 4.120
*N Reciever/Unit2/n104:3 *C 33.892 4.695
*N Reciever/Unit2/n104:4 *C 33.892 4.266
*N Reciever/Unit2/n104:5 *C 33.879 4.252
*N Reciever/Unit2/n104:6 *C 32.981 4.252
*N Reciever/Unit2/n104:7 *C 32.980 4.240

*CAP
0 Reciever\/Unit2\/U75:Y 0.001
1 Reciever\/Unit2\/stop_count_reg[2]:D 0.001
2 Reciever/Unit2/n104:2 0.01274367
3 Reciever/Unit2/n104:3 0.02098644
4 Reciever/Unit2/n104:4 0.02241912
5 Reciever/Unit2/n104:5 0.03828388
6 Reciever/Unit2/n104:6 0.03828388
7 Reciever/Unit2/n104:7 0.006566552

*RES
0 Reciever\/Unit2\/U75:Y Reciever/Unit2/n104:7 1
1 Reciever/Unit2/n104:3 Reciever\/Unit2\/stop_count_reg[2]:D 1
2 Reciever/Unit2/n104:4 Reciever/Unit2/n104:3 0.7660715
3 Reciever/Unit2/n104:5 Reciever/Unit2/n104:4 0.5
4 Reciever/Unit2/n104:7 Reciever/Unit2/n104:6 0.5
5 Reciever/Unit2/n104:7 Reciever/Unit2/n104:2 0.1991667
6 Reciever/Unit2/n104:6 Reciever/Unit2/n104:5 1.602679

*END

*D_NET Reciever/Unit2/n105 0.2058623 //LENGTH 2.310 LUMPCC 0 DR

*CONN
*I Reciever\/Unit2\/U77:Y O *L 0 *C 34.348 0.908
*I Reciever\/Unit2\/stop_count_reg[1]:D I *L 0.540554 *C 34.044 2.580
*N Reciever/Unit2/n105:2 *C 34.044 2.567
*N Reciever/Unit2/n105:3 *C 34.044 2.428
*N Reciever/Unit2/n105:4 *C 34.196 2.428
*N Reciever/Unit2/n105:5 *C 34.196 1.820
*N Reciever/Unit2/n105:6 *C 34.348 1.820
*N Reciever/Unit2/n105:7 *C 34.348 0.922

*CAP
0 Reciever\/Unit2\/U77:Y 0.001
1 Reciever\/Unit2\/stop_count_reg[1]:D 0.001
2 Reciever/Unit2/n105:2 0.008210965
3 Reciever/Unit2/n105:3 0.02040952
4 Reciever/Unit2/n105:4 0.0442017
5 Reciever/Unit2/n105:5 0.0439958
6 Reciever/Unit2/n105:6 0.0495185
7 Reciever/Unit2/n105:7 0.03752584

*RES
0 Reciever\/Unit2\/U77:Y Reciever/Unit2/n105:7 1
1 Reciever/Unit2/n105:2 Reciever\/Unit2\/stop_count_reg[1]:D 1
2 Reciever/Unit2/n105:7 Reciever/Unit2/n105:6 1.604464
3 Reciever/Unit2/n105:3 Reciever/Unit2/n105:2 0.2473214
4 Reciever/Unit2/n105:4 Reciever/Unit2/n105:3 0.2714286
5 Reciever/Unit2/n105:5 Reciever/Unit2/n105:4 1.085714
6 Reciever/Unit2/n105:6 Reciever/Unit2/n105:5 0.2714286

*END

*D_NET Reciever/Unit2/n106 0.3398606 //LENGTH 4.591 LUMPCC 0 DR

*CONN
*I Reciever\/Unit2\/U80:Y O *L 0 *C 30.092 3.036
*I Reciever\/Unit2\/stop_count_reg[0]:D I *L 0.540554 *C 27.508 1.364
*N Reciever/Unit2/n106:2 *C 27.508 1.364
*N Reciever/Unit2/n106:3 *C 27.508 1.504
*N Reciever/Unit2/n106:4 *C 27.521 1.516
*N Reciever/Unit2/n106:5 *C 30.079 1.516
*N Reciever/Unit2/n106:6 *C 30.092 1.530
*N Reciever/Unit2/n106:7 *C 30.092 3.022

*CAP
0 Reciever\/Unit2\/U80:Y 0.001
1 Reciever\/Unit2\/stop_count_reg[0]:D 0.001
2 Reciever/Unit2/n106:2 0.008543834
3 Reciever/Unit2/n106:3 0.009976513
4 Reciever/Unit2/n106:4 0.09031473
5 Reciever/Unit2/n106:5 0.09031473
6 Reciever/Unit2/n106:6 0.07007174
7 Reciever/Unit2/n106:7 0.06863906

*RES
0 Reciever\/Unit2\/U80:Y Reciever/Unit2/n106:7 1
1 Reciever/Unit2/n106:2 Reciever\/Unit2\/stop_count_reg[0]:D 1
2 Reciever/Unit2/n106:3 Reciever/Unit2/n106:2 0.2325
3 Reciever/Unit2/n106:4 Reciever/Unit2/n106:3 0.5
4 Reciever/Unit2/n106:6 Reciever/Unit2/n106:5 0.5
5 Reciever/Unit2/n106:5 Reciever/Unit2/n106:4 4.566072
6 Reciever/Unit2/n106:7 Reciever/Unit2/n106:6 2.666071

*END

*D_NET Reciever/Unit2/n107 0.438076 //LENGTH 5.498 LUMPCC 0 DR

*CONN
*I Reciever\/Unit2\/U81:Y O *L 0 *C 30.700 7.596
*I Reciever\/Unit2\/stop_count_reg[3]:D I *L 0.540554 *C 27.204 9.268
*N Reciever/Unit2/n107:2 *C 27.204 9.255
*N Reciever/Unit2/n107:3 *C 27.204 8.521
*N Reciever/Unit2/n107:4 *C 27.218 8.508
*N Reciever/Unit2/n107:5 *C 30.687 8.508
*N Reciever/Unit2/n107:6 *C 30.700 8.495
*N Reciever/Unit2/n107:7 *C 30.700 7.610

*CAP
0 Reciever\/Unit2\/U81:Y 0.001
1 Reciever\/Unit2\/stop_count_reg[3]:D 0.001
2 Reciever/Unit2/n107:2 0.03891063
3 Reciever/Unit2/n107:3 0.04034331
4 Reciever/Unit2/n107:4 0.1397954
5 Reciever/Unit2/n107:5 0.1397954
6 Reciever/Unit2/n107:6 0.03933201
7 Reciever/Unit2/n107:7 0.03789933

*RES
0 Reciever\/Unit2\/U81:Y Reciever/Unit2/n107:7 1
1 Reciever/Unit2/n107:2 Reciever\/Unit2\/stop_count_reg[3]:D 1
2 Reciever/Unit2/n107:3 Reciever/Unit2/n107:2 1.308929
3 Reciever/Unit2/n107:4 Reciever/Unit2/n107:3 0.5
4 Reciever/Unit2/n107:6 Reciever/Unit2/n107:5 0.5
5 Reciever/Unit2/n107:5 Reciever/Unit2/n107:4 6.194643
6 Reciever/Unit2/n107:7 Reciever/Unit2/n107:6 1.580357

*END

*D_NET Reciever/Unit2/n108 0.2851624 //LENGTH 3.370 LUMPCC 0 DR

*CONN
*I Reciever\/Unit2\/U89:Y O *L 0 *C 16.716 3.948
*I Reciever\/Unit2\/frame_counter_reg[3]:D I *L 0.540554 *C 17.172 1.364
*N Reciever/Unit2/n108:2 *C 17.172 1.378
*N Reciever/Unit2/n108:3 *C 17.172 1.806
*N Reciever/Unit2/n108:4 *C 17.159 1.820
*N Reciever/Unit2/n108:5 *C 16.730 1.820
*N Reciever/Unit2/n108:6 *C 16.716 1.834
*N Reciever/Unit2/n108:7 *C 16.716 3.935

*CAP
0 Reciever\/Unit2\/U89:Y 0.001
1 Reciever\/Unit2\/frame_counter_reg[3]:D 0.001
2 Reciever/Unit2/n108:2 0.02055226
3 Reciever/Unit2/n108:3 0.02198494
4 Reciever/Unit2/n108:4 0.01716074
5 Reciever/Unit2/n108:5 0.01716074
6 Reciever/Unit2/n108:6 0.1038682
7 Reciever/Unit2/n108:7 0.1024355

*RES
0 Reciever\/Unit2\/U89:Y Reciever/Unit2/n108:7 1
1 Reciever/Unit2/n108:2 Reciever\/Unit2\/frame_counter_reg[3]:D 1
2 Reciever/Unit2/n108:3 Reciever/Unit2/n108:2 0.7660714
3 Reciever/Unit2/n108:4 Reciever/Unit2/n108:3 0.5
4 Reciever/Unit2/n108:6 Reciever/Unit2/n108:5 0.5
5 Reciever/Unit2/n108:5 Reciever/Unit2/n108:4 0.7660714
6 Reciever/Unit2/n108:7 Reciever/Unit2/n108:6 3.751786

*END

*D_NET Reciever/Unit2/n109 0.3350809 //LENGTH 4.895 LUMPCC 0 DR

*CONN
*I Reciever\/Unit2\/U92:Y O *L 0 *C 8.660 2.124
*I Reciever\/Unit2\/frame_counter_reg[0]:D I *L 0.540554 *C 4.860 1.364
*N Reciever/Unit2/n109:2 *C 4.860 1.364
*N Reciever/Unit2/n109:3 *C 4.860 1.504
*N Reciever/Unit2/n109:4 *C 4.873 1.516
*N Reciever/Unit2/n109:5 *C 8.646 1.516
*N Reciever/Unit2/n109:6 *C 8.660 1.530
*N Reciever/Unit2/n109:7 *C 8.660 2.111

*CAP
0 Reciever\/Unit2\/U92:Y 0.001
1 Reciever\/Unit2\/frame_counter_reg[0]:D 0.001
2 Reciever/Unit2/n109:2 0.007702911
3 Reciever/Unit2/n109:3 0.009135589
4 Reciever/Unit2/n109:4 0.1269959
5 Reciever/Unit2/n109:5 0.1269959
6 Reciever/Unit2/n109:6 0.03101151
7 Reciever/Unit2/n109:7 0.03123915

*RES
0 Reciever\/Unit2\/U92:Y Reciever/Unit2/n109:7 1
1 Reciever/Unit2/n109:2 Reciever\/Unit2\/frame_counter_reg[0]:D 1
2 Reciever/Unit2/n109:3 Reciever/Unit2/n109:2 0.2325
3 Reciever/Unit2/n109:4 Reciever/Unit2/n109:3 0.5
4 Reciever/Unit2/n109:6 Reciever/Unit2/n109:5 0.5
5 Reciever/Unit2/n109:5 Reciever/Unit2/n109:4 6.7375
6 Reciever/Unit2/n109:7 Reciever/Unit2/n109:6 1.0375

*END

*D_NET Reciever/Unit2/n1 0.5367661 //LENGTH 6.238 LUMPCC 0 DR

*CONN
*I Reciever\/Unit2\/active_flag_reg:QN O *L 0 *C 13.676 10.636
*I Reciever\/Unit2\/U110:A1 I *L 0.501161 *C 18.844 11.244
*N Reciever/Unit2/n1:2 *C 18.844 11.062
*N Reciever/Unit2/n1:3 *C 18.844 11.232
*N Reciever/Unit2/n1:4 *C 18.831 11.244
*N Reciever/Unit2/n1:5 *C 13.690 11.244
*N Reciever/Unit2/n1:6 *C 13.676 11.231
*N Reciever/Unit2/n1:7 *C 13.676 10.649

*CAP
0 Reciever\/Unit2\/active_flag_reg:QN 0.001
1 Reciever\/Unit2\/U110:A1 0.001
2 Reciever/Unit2/n1:2 0.01408506
3 Reciever/Unit2/n1:3 0.007907945
4 Reciever/Unit2/n1:4 0.22911
5 Reciever/Unit2/n1:5 0.22911
6 Reciever/Unit2/n1:6 0.0279929
7 Reciever/Unit2/n1:7 0.02656022

*RES
0 Reciever\/Unit2\/active_flag_reg:QN Reciever/Unit2/n1:7 1
1 Reciever/Unit2/n1:3 Reciever\/Unit2\/U110:A1 1
2 Reciever/Unit2/n1:3 Reciever/Unit2/n1:2 0.2825
3 Reciever/Unit2/n1:4 Reciever/Unit2/n1:3 0.5
4 Reciever/Unit2/n1:6 Reciever/Unit2/n1:5 0.5
5 Reciever/Unit2/n1:5 Reciever/Unit2/n1:4 9.180358
6 Reciever/Unit2/n1:7 Reciever/Unit2/n1:6 1.0375

*END

*D_NET Reciever/Unit2/n2 0.4472263 //LENGTH 4.422 LUMPCC 0 DR

*CONN
*I Reciever\/Unit2\/U111:Y O *L 0 *C 18.084 6.836
*I Reciever\/Unit2\/U110:A3 I *L 0.601923 *C 18.236 10.940
*N Reciever/Unit2/n2:2 *C 18.223 10.940
*N Reciever/Unit2/n2:3 *C 18.084 10.940
*N Reciever/Unit2/n2:4 *C 18.084 6.849

*CAP
0 Reciever\/Unit2\/U111:Y 0.001
1 Reciever\/Unit2\/U110:A3 0.001
2 Reciever/Unit2/n2:2 0.006148386
3 Reciever/Unit2/n2:3 0.2259796
4 Reciever/Unit2/n2:4 0.2130983

*RES
0 Reciever\/Unit2\/U111:Y Reciever/Unit2/n2:4 1
1 Reciever/Unit2/n2:2 Reciever\/Unit2\/U110:A3 1
2 Reciever/Unit2/n2:4 Reciever/Unit2/n2:3 7.304464
3 Reciever/Unit2/n2:3 Reciever/Unit2/n2:2 0.2473214

*END

*D_NET Reciever/Unit1/tmp_net0 0.2424386 //LENGTH 2.919 LUMPCC 0 DR

*CONN
*I Reciever\/Unit1\/ctmTdsLR_1_286:Y O *L 0 *C 12.156 31.460
*I Reciever\/Unit1\/ctmTdsLR_3_288:A1 I *L 0.450769 *C 14.284 31.308
*N Reciever/Unit1/tmp_net0:2 *C 14.284 31.322
*N Reciever/Unit1/tmp_net0:3 *C 14.284 31.599
*N Reciever/Unit1/tmp_net0:4 *C 14.271 31.612
*N Reciever/Unit1/tmp_net0:5 *C 12.170 31.612
*N Reciever/Unit1/tmp_net0:6 *C 12.156 31.600
*N Reciever/Unit1/tmp_net0:7 *C 12.156 31.460

*CAP
0 Reciever\/Unit1\/ctmTdsLR_1_286:Y 0.001
1 Reciever\/Unit1\/ctmTdsLR_3_288:A1 0.001
2 Reciever/Unit1/tmp_net0:2 0.02157195
3 Reciever/Unit1/tmp_net0:3 0.02300463
4 Reciever/Unit1/tmp_net0:4 0.0886773
5 Reciever/Unit1/tmp_net0:5 0.0886773
6 Reciever/Unit1/tmp_net0:6 0.009970066
7 Reciever/Unit1/tmp_net0:7 0.008537387

*RES
0 Reciever\/Unit1\/ctmTdsLR_1_286:Y Reciever/Unit1/tmp_net0:7 1
1 Reciever/Unit1/tmp_net0:2 Reciever\/Unit1\/ctmTdsLR_3_288:A1 1
2 Reciever/Unit1/tmp_net0:3 Reciever/Unit1/tmp_net0:2 0.4946429
3 Reciever/Unit1/tmp_net0:4 Reciever/Unit1/tmp_net0:3 0.5
4 Reciever/Unit1/tmp_net0:6 Reciever/Unit1/tmp_net0:5 0.5
5 Reciever/Unit1/tmp_net0:5 Reciever/Unit1/tmp_net0:4 3.751786
6 Reciever/Unit1/tmp_net0:7 Reciever/Unit1/tmp_net0:6 0.2325

*END

*D_NET Reciever/Unit2/n7 0.2440693 //LENGTH 2.654 LUMPCC 0 DR

*CONN
*I Reciever\/Unit2\/U33:Y O *L 0 *C 8.812 13.220
*I Reciever\/Unit2\/U37:A2 I *L 0.458594 *C 7.444 14.284
*N Reciever/Unit2/n7:2 *C 7.444 14.271
*N Reciever/Unit2/n7:3 *C 7.444 13.524
*N Reciever/Unit2/n7:4 *C 8.812 13.524
*N Reciever/Unit2/n7:5 *C 8.812 13.234

*CAP
0 Reciever\/Unit2\/U33:Y 0.001
1 Reciever\/Unit2\/U37:A2 0.001
2 Reciever/Unit2/n7:2 0.04036081
3 Reciever/Unit2/n7:3 0.1045067
4 Reciever/Unit2/n7:4 0.08064398
5 Reciever/Unit2/n7:5 0.0165578

*RES
0 Reciever\/Unit2\/U33:Y Reciever/Unit2/n7:5 1
1 Reciever/Unit2/n7:2 Reciever\/Unit2\/U37:A2 1
2 Reciever/Unit2/n7:5 Reciever/Unit2/n7:4 0.5187501
3 Reciever/Unit2/n7:3 Reciever/Unit2/n7:2 1.333036
4 Reciever/Unit2/n7:4 Reciever/Unit2/n7:3 2.442857

*END

*D_NET Reciever/Unit2/n8 0.2379693 //LENGTH 2.046 LUMPCC 0 DR

*CONN
*I Reciever\/Unit2\/U28:Y O *L 0 *C 10.332 14.740
*I Reciever\/Unit2\/U60:A2 I *L 0.458594 *C 10.484 16.412
*N Reciever/Unit2/n8:2 *C 10.484 16.399
*N Reciever/Unit2/n8:3 *C 10.484 15.500
*N Reciever/Unit2/n8:4 *C 10.332 15.500
*N Reciever/Unit2/n8:5 *C 10.332 14.754

*CAP
0 Reciever\/Unit2\/U28:Y 0.001
1 Reciever\/Unit2\/U60:A2 0.001
2 Reciever/Unit2/n8:2 0.05778533
3 Reciever/Unit2/n8:3 0.06955239
4 Reciever/Unit2/n8:4 0.06019932
5 Reciever/Unit2/n8:5 0.04843226

*RES
0 Reciever\/Unit2\/U28:Y Reciever/Unit2/n8:5 1
1 Reciever/Unit2/n8:2 Reciever\/Unit2\/U60:A2 1
2 Reciever/Unit2/n8:5 Reciever/Unit2/n8:4 1.333036
3 Reciever/Unit2/n8:4 Reciever/Unit2/n8:3 0.2714286
4 Reciever/Unit2/n8:3 Reciever/Unit2/n8:2 1.604464

*END

*D_NET Reciever/Unit2/n9 0.1241152 //LENGTH 1.368 LUMPCC 0 DR

*CONN
*I Reciever\/Unit2\/U31:Y O *L 0 *C 13.980 13.220
*I Reciever\/Unit2\/U54:A2 I *L 0.458594 *C 13.841 14.284
*N Reciever/Unit2/n9:2 *C 13.968 14.284
*N Reciever/Unit2/n9:3 *C 13.980 14.271
*N Reciever/Unit2/n9:4 *C 13.980 13.234

*CAP
0 Reciever\/Unit2\/U31:Y 0.001
1 Reciever\/Unit2\/U54:A2 0.01244324
2 Reciever/Unit2/n9:2 0.01036784
3 Reciever/Unit2/n9:3 0.05098696
4 Reciever/Unit2/n9:4 0.04931718

*RES
0 Reciever\/Unit2\/U31:Y Reciever/Unit2/n9:4 1
1 Reciever/Unit2/n9:2 Reciever\/Unit2\/U54:A2 0.2116667
2 Reciever/Unit2/n9:3 Reciever/Unit2/n9:2 1
3 Reciever/Unit2/n9:4 Reciever/Unit2/n9:3 1.851786

*END

*D_NET Reciever/Unit2/n10 0.2494787 //LENGTH 2.610 LUMPCC 0 DR

*CONN
*I Reciever\/Unit2\/U26:Y O *L 0 *C 5.012 11.396
*I Reciever\/Unit2\/U49:A2 I *L 0.458594 *C 4.404 13.068
*N Reciever/Unit2/n10:2 *C 4.404 13.055
*N Reciever/Unit2/n10:3 *C 4.404 12.170
*N Reciever/Unit2/n10:4 *C 4.418 12.156
*N Reciever/Unit2/n10:5 *C 4.998 12.156
*N Reciever/Unit2/n10:6 *C 5.012 12.143
*N Reciever/Unit2/n10:7 *C 5.012 11.410

*CAP
0 Reciever\/Unit2\/U26:Y 0.001
1 Reciever\/Unit2\/U49:A2 0.001
2 Reciever/Unit2/n10:2 0.06429821
3 Reciever/Unit2/n10:3 0.06573089
4 Reciever/Unit2/n10:4 0.0253868
5 Reciever/Unit2/n10:5 0.0253868
6 Reciever/Unit2/n10:6 0.03405432
7 Reciever/Unit2/n10:7 0.03262164

*RES
0 Reciever\/Unit2\/U26:Y Reciever/Unit2/n10:7 1
1 Reciever/Unit2/n10:2 Reciever\/Unit2\/U49:A2 1
2 Reciever/Unit2/n10:3 Reciever/Unit2/n10:2 1.580357
3 Reciever/Unit2/n10:4 Reciever/Unit2/n10:3 0.5
4 Reciever/Unit2/n10:6 Reciever/Unit2/n10:5 0.5
5 Reciever/Unit2/n10:5 Reciever/Unit2/n10:4 1.0375
6 Reciever/Unit2/n10:7 Reciever/Unit2/n10:6 1.308928

*END

*D_NET Reciever/Unit2/n11 0.1874392 //LENGTH 2.269 LUMPCC 0 DR

*CONN
*I Reciever\/Unit2\/U29:Y O *L 0 *C 6.684 13.220
*I Reciever\/Unit2\/U43:A2 I *L 0.458594 *C 5.620 14.284
*N Reciever/Unit2/n11:2 *C 5.621 14.284
*N Reciever/Unit2/n11:3 *C 6.684 14.284
*N Reciever/Unit2/n11:4 *C 6.684 13.234

*CAP
0 Reciever\/Unit2\/U29:Y 0.001
1 Reciever\/Unit2\/U43:A2 0.001
2 Reciever/Unit2/n11:2 0.04307381
3 Reciever/Unit2/n11:3 0.09649462
4 Reciever/Unit2/n11:4 0.04587074

*RES
0 Reciever\/Unit2\/U29:Y Reciever/Unit2/n11:4 1
1 Reciever/Unit2/n11:2 Reciever\/Unit2\/U43:A2 1
2 Reciever/Unit2/n11:4 Reciever/Unit2/n11:3 1.875893
3 Reciever/Unit2/n11:3 Reciever/Unit2/n11:2 1.898214

*END

*D_NET Reciever/Unit2/n12 0.2356014 //LENGTH 2.762 LUMPCC 0 DR

*CONN
*I Reciever\/Unit2\/U27:Y O *L 0 *C 10.636 13.220
*I Reciever\/Unit2\/U52:A2 I *L 0.458594 *C 12.004 14.284
*N Reciever/Unit2/n12:2 *C 12.004 14.271
*N Reciever/Unit2/n12:3 *C 12.004 13.690
*N Reciever/Unit2/n12:4 *C 11.991 13.676
*N Reciever/Unit2/n12:5 *C 10.649 13.676
*N Reciever/Unit2/n12:6 *C 10.636 13.663
*N Reciever/Unit2/n12:7 *C 10.636 13.234

*CAP
0 Reciever\/Unit2\/U27:Y 0.001
1 Reciever\/Unit2\/U52:A2 0.001
2 Reciever/Unit2/n12:2 0.03436684
3 Reciever/Unit2/n12:3 0.03579952
4 Reciever/Unit2/n12:4 0.06061574
5 Reciever/Unit2/n12:5 0.06061574
6 Reciever/Unit2/n12:6 0.02178826
7 Reciever/Unit2/n12:7 0.0204153

*RES
0 Reciever\/Unit2\/U27:Y Reciever/Unit2/n12:7 1
1 Reciever/Unit2/n12:2 Reciever\/Unit2\/U52:A2 1
2 Reciever/Unit2/n12:3 Reciever/Unit2/n12:2 1.0375
3 Reciever/Unit2/n12:4 Reciever/Unit2/n12:3 0.5
4 Reciever/Unit2/n12:6 Reciever/Unit2/n12:5 0.5
5 Reciever/Unit2/n12:5 Reciever/Unit2/n12:4 2.394643
6 Reciever/Unit2/n12:7 Reciever/Unit2/n12:6 0.7660714

*END

*D_NET Reciever/Unit2/n13 0.2257585 //LENGTH 2.396 LUMPCC 0 DR

*CONN
*I Reciever\/Unit2\/U25:Y O *L 0 *C 2.276 4.100
*I Reciever\/Unit2\/U39:A2 I *L 0.458594 *C 1.463 3.036
*N Reciever/Unit2/n13:2 *C 1.516 3.218
*N Reciever/Unit2/n13:3 *C 1.516 3.036
*N Reciever/Unit2/n13:4 *C 1.516 3.049
*N Reciever/Unit2/n13:5 *C 1.530 3.036
*N Reciever/Unit2/n13:6 *C 2.263 3.036
*N Reciever/Unit2/n13:7 *C 2.276 3.050
*N Reciever/Unit2/n13:8 *C 2.276 4.087

*CAP
0 Reciever\/Unit2\/U25:Y 0.001
1 Reciever\/Unit2\/U39:A2 0.007785332
2 Reciever/Unit2/n13:2 0.01941187
3 Reciever/Unit2/n13:3 0.005709934
4 Reciever/Unit2/n13:4 0.01496425
5 Reciever/Unit2/n13:5 0.03199745
6 Reciever/Unit2/n13:6 0.03199745
7 Reciever/Unit2/n13:7 0.05713261
8 Reciever/Unit2/n13:8 0.05575965

*RES
0 Reciever\/Unit2\/U25:Y Reciever/Unit2/n13:8 1
1 Reciever/Unit2/n13:3 Reciever\/Unit2\/U39:A2 0.09166668
2 Reciever/Unit2/n13:4 Reciever/Unit2/n13:3 1
3 Reciever/Unit2/n13:4 Reciever/Unit2/n13:2 0.2825
4 Reciever/Unit2/n13:5 Reciever/Unit2/n13:4 0.5
5 Reciever/Unit2/n13:7 Reciever/Unit2/n13:6 0.5
6 Reciever/Unit2/n13:6 Reciever/Unit2/n13:5 1.308929
7 Reciever/Unit2/n13:8 Reciever/Unit2/n13:7 1.851786

*END

*D_NET Reciever/Unit2/n14 0.7555902 //LENGTH 7.887 LUMPCC 0 DR

*CONN
*I Reciever\/Unit2\/U19:Y O *L 0 *C 8.508 9.268
*I Reciever\/Unit2\/U51:A1 I *L 0.608353 *C 7.444 9.420
*I Reciever\/Unit2\/U41:A3 I *L 0.5071 *C 9.420 7.748
*I Reciever\/Unit2\/U53:A2 I *L 0.447801 *C 9.724 9.420
*I Reciever\/Unit2\/U62:A2 I *L 0.546428 *C 8.660 11.092
*N Reciever/Unit2/n14:5 *C 8.660 11.079
*N Reciever/Unit2/n14:6 *C 9.723 9.420
*N Reciever/Unit2/n14:7 *C 9.420 7.762
*N Reciever/Unit2/n14:8 *C 9.420 9.420
*N Reciever/Unit2/n14:9 *C 9.572 9.420
*N Reciever/Unit2/n14:10 *C 9.572 10.319
*N Reciever/Unit2/n14:11 *C 9.559 10.332
*N Reciever/Unit2/n14:12 *C 8.674 10.332
*N Reciever/Unit2/n14:13 *C 8.660 10.346
*N Reciever/Unit2/n14:14 *C 8.508 10.332
*N Reciever/Unit2/n14:15 *C 7.444 9.238
*N Reciever/Unit2/n14:16 *C 7.444 9.408
*N Reciever/Unit2/n14:17 *C 7.458 9.420
*N Reciever/Unit2/n14:18 *C 8.495 9.420
*N Reciever/Unit2/n14:19 *C 8.508 9.434
*N Reciever/Unit2/n14:20 *C 8.508 9.280

*CAP
0 Reciever\/Unit2\/U19:Y 0.001
1 Reciever\/Unit2\/U51:A1 0.001
2 Reciever\/Unit2\/U41:A3 0.001
3 Reciever\/Unit2\/U53:A2 0.001
4 Reciever\/Unit2\/U62:A2 0.001
5 Reciever/Unit2/n14:5 0.04164627
6 Reciever/Unit2/n14:6 0.003857445
7 Reciever/Unit2/n14:7 0.0915393
8 Reciever/Unit2/n14:8 0.1024937
9 Reciever/Unit2/n14:9 0.07068738
10 Reciever/Unit2/n14:10 0.05350333
11 Reciever/Unit2/n14:11 0.03878096
12 Reciever/Unit2/n14:12 0.03878096
13 Reciever/Unit2/n14:13 0.05175447
14 Reciever/Unit2/n14:14 0.06114748
15 Reciever/Unit2/n14:15 0.01880286
16 Reciever/Unit2/n14:16 0.01262575
17 Reciever/Unit2/n14:17 0.04785891
18 Reciever/Unit2/n14:18 0.04785891
19 Reciever/Unit2/n14:19 0.06157852
20 Reciever/Unit2/n14:20 0.007673884

*RES
0 Reciever\/Unit2\/U19:Y Reciever/Unit2/n14:20 1
1 Reciever/Unit2/n14:6 Reciever\/Unit2\/U53:A2 1
2 Reciever/Unit2/n14:7 Reciever\/Unit2\/U41:A3 1
3 Reciever/Unit2/n14:5 Reciever\/Unit2\/U62:A2 1
4 Reciever/Unit2/n14:10 Reciever/Unit2/n14:9 1.604464
5 Reciever/Unit2/n14:11 Reciever/Unit2/n14:10 0.5
6 Reciever/Unit2/n14:13 Reciever/Unit2/n14:12 0.5
7 Reciever/Unit2/n14:13 Reciever/Unit2/n14:5 1.308929
8 Reciever/Unit2/n14:12 Reciever/Unit2/n14:11 1.580357
9 Reciever/Unit2/n14:20 Reciever/Unit2/n14:19 0.255
10 Reciever/Unit2/n14:19 Reciever/Unit2/n14:18 0.5
11 Reciever/Unit2/n14:19 Reciever/Unit2/n14:14 1.604464
12 Reciever/Unit2/n14:18 Reciever/Unit2/n14:17 1.851786
13 Reciever/Unit2/n14:16 Reciever\/Unit2\/U51:A1 1
14 Reciever/Unit2/n14:16 Reciever/Unit2/n14:15 0.2825
15 Reciever/Unit2/n14:17 Reciever/Unit2/n14:16 0.5
16 Reciever/Unit2/n14:14 Reciever/Unit2/n14:13 0.2714286
17 Reciever/Unit2/n14:8 Reciever/Unit2/n14:7 2.961607
18 Reciever/Unit2/n14:9 Reciever/Unit2/n14:8 0.2714286
19 Reciever/Unit2/n14:9 Reciever/Unit2/n14:6 0.2696429

*END

*D_NET Reciever/Unit2/n15 0.3062856 //LENGTH 2.919 LUMPCC 0 DR

*CONN
*I Reciever\/Unit2\/U30:Y O *L 0 *C 5.620 9.268
*I Reciever\/Unit2\/U46:A2 I *L 0.458594 *C 4.708 7.596
*N Reciever/Unit2/n15:2 *C 4.708 7.610
*N Reciever/Unit2/n15:3 *C 4.708 9.103
*N Reciever/Unit2/n15:4 *C 4.721 9.116
*N Reciever/Unit2/n15:5 *C 5.607 9.116
*N Reciever/Unit2/n15:6 *C 5.620 9.116
*N Reciever/Unit2/n15:7 *C 5.620 9.255

*CAP
0 Reciever\/Unit2\/U30:Y 0.001
1 Reciever\/Unit2\/U46:A2 0.001
2 Reciever/Unit2/n15:2 0.1033684
3 Reciever/Unit2/n15:3 0.104801
4 Reciever/Unit2/n15:4 0.03799421
5 Reciever/Unit2/n15:5 0.03799421
6 Reciever/Unit2/n15:6 0.01078028
7 Reciever/Unit2/n15:7 0.009347598

*RES
0 Reciever\/Unit2\/U30:Y Reciever/Unit2/n15:7 1
1 Reciever/Unit2/n15:2 Reciever\/Unit2\/U46:A2 1
2 Reciever/Unit2/n15:3 Reciever/Unit2/n15:2 2.666072
3 Reciever/Unit2/n15:4 Reciever/Unit2/n15:3 0.5
4 Reciever/Unit2/n15:6 Reciever/Unit2/n15:5 0.5
5 Reciever/Unit2/n15:5 Reciever/Unit2/n15:4 1.580357
6 Reciever/Unit2/n15:7 Reciever/Unit2/n15:6 0.2325

*END

*D_NET Reciever/Unit2/n16 0.2665234 //LENGTH 2.914 LUMPCC 0 DR

*CONN
*I Reciever\/Unit2\/U24:Y O *L 0 *C 19.148 14.132
*I Reciever\/Unit2\/U35:A2 I *L 0.458594 *C 20.668 14.284
*N Reciever/Unit2/n16:2 *C 20.668 14.271
*N Reciever/Unit2/n16:3 *C 20.668 13.690
*N Reciever/Unit2/n16:4 *C 20.655 13.676
*N Reciever/Unit2/n16:5 *C 19.162 13.676
*N Reciever/Unit2/n16:6 *C 19.148 13.690
*N Reciever/Unit2/n16:7 *C 19.148 14.119

*CAP
0 Reciever\/Unit2\/U24:Y 0.001
1 Reciever\/Unit2\/U35:A2 0.001
2 Reciever/Unit2/n16:2 0.03331579
3 Reciever/Unit2/n16:3 0.03474847
4 Reciever/Unit2/n16:4 0.07243622
5 Reciever/Unit2/n16:5 0.07243622
6 Reciever/Unit2/n16:6 0.02647983
7 Reciever/Unit2/n16:7 0.02510687

*RES
0 Reciever\/Unit2\/U24:Y Reciever/Unit2/n16:7 1
1 Reciever/Unit2/n16:2 Reciever\/Unit2\/U35:A2 1
2 Reciever/Unit2/n16:3 Reciever/Unit2/n16:2 1.0375
3 Reciever/Unit2/n16:4 Reciever/Unit2/n16:3 0.5
4 Reciever/Unit2/n16:6 Reciever/Unit2/n16:5 0.5
5 Reciever/Unit2/n16:5 Reciever/Unit2/n16:4 2.666071
6 Reciever/Unit2/n16:7 Reciever/Unit2/n16:6 0.7660714

*END

*D_NET Reciever/Unit2/n17 0.06365931 //LENGTH 0.820 LUMPCC 0 DR

*CONN
*I Reciever\/Unit2\/U32:Y O *L 0 *C 6.228 6.380
*I Reciever\/Unit2\/U57:A2 I *L 0.458594 *C 5.468 6.380
*N Reciever/Unit2/n17:2 *C 5.469 6.380
*N Reciever/Unit2/n17:3 *C 6.227 6.380

*CAP
0 Reciever\/Unit2\/U32:Y 0.001
1 Reciever\/Unit2\/U57:A2 0.001
2 Reciever/Unit2/n17:2 0.03079979
3 Reciever/Unit2/n17:3 0.03085952

*RES
0 Reciever\/Unit2\/U32:Y Reciever/Unit2/n17:3 1
1 Reciever/Unit2/n17:2 Reciever\/Unit2\/U57:A2 1
2 Reciever/Unit2/n17:3 Reciever/Unit2/n17:2 1.353571

*END

*D_NET Reciever/Unit2/n18 1.409103 //LENGTH 15.215 LUMPCC 0 DR

*CONN
*I Reciever\/Unit2\/U21:Y O *L 0 *C 10.028 4.708
*I Reciever\/Unit2\/U51:A2 I *L 0.546428 *C 7.292 9.572
*I Reciever\/Unit2\/U45:A2 I *L 0.546428 *C 7.292 11.092
*I Reciever\/Unit2\/U48:A2 I *L 0.546428 *C 8.204 7.748
*I Reciever\/Unit2\/U72:A4 I *L 0.545401 *C 12.916 2.580
*N Reciever/Unit2/n18:5 *C 12.916 2.594
*N Reciever/Unit2/n18:6 *C 12.916 4.846
*N Reciever/Unit2/n18:7 *C 12.902 4.860
*N Reciever/Unit2/n18:8 *C 8.204 7.736
*N Reciever/Unit2/n18:9 *C 7.292 11.079
*N Reciever/Unit2/n18:10 *C 7.292 9.572
*N Reciever/Unit2/n18:11 *C 7.292 7.610
*N Reciever/Unit2/n18:12 *C 7.306 7.596
*N Reciever/Unit2/n18:13 *C 8.191 7.596
*N Reciever/Unit2/n18:14 *C 8.204 7.595
*N Reciever/Unit2/n18:15 *C 8.204 4.873
*N Reciever/Unit2/n18:16 *C 8.218 4.860
*N Reciever/Unit2/n18:17 *C 10.028 4.860
*N Reciever/Unit2/n18:18 *C 10.028 4.848
*N Reciever/Unit2/n18:19 *C 10.028 4.708

*CAP
0 Reciever\/Unit2\/U21:Y 0.001
1 Reciever\/Unit2\/U51:A2 0.001
2 Reciever\/Unit2\/U45:A2 0.001
3 Reciever\/Unit2\/U48:A2 0.001
4 Reciever\/Unit2\/U72:A4 0.001
5 Reciever/Unit2/n18:5 0.101135
6 Reciever/Unit2/n18:6 0.1025676
7 Reciever/Unit2/n18:7 0.09524374
8 Reciever/Unit2/n18:8 0.01263781
9 Reciever/Unit2/n18:9 0.09673432
10 Reciever/Unit2/n18:10 0.2118959
11 Reciever/Unit2/n18:11 0.1127894
12 Reciever/Unit2/n18:12 0.03836503
13 Reciever/Unit2/n18:13 0.03836503
14 Reciever/Unit2/n18:14 0.1828913
15 Reciever/Unit2/n18:15 0.1664486
16 Reciever/Unit2/n18:16 0.06523953
17 Reciever/Unit2/n18:17 0.1628555
18 Reciever/Unit2/n18:18 0.00918343
19 Reciever/Unit2/n18:19 0.007750752

*RES
0 Reciever\/Unit2\/U21:Y Reciever/Unit2/n18:19 1
1 Reciever/Unit2/n18:6 Reciever/Unit2/n18:5 4.023214
2 Reciever/Unit2/n18:7 Reciever/Unit2/n18:6 0.5
3 Reciever/Unit2/n18:5 Reciever\/Unit2\/U72:A4 1
4 Reciever/Unit2/n18:18 Reciever/Unit2/n18:17 0.5
5 Reciever/Unit2/n18:17 Reciever/Unit2/n18:16 3.233036
6 Reciever/Unit2/n18:17 Reciever/Unit2/n18:7 5.133036
7 Reciever/Unit2/n18:19 Reciever/Unit2/n18:18 0.2325
8 Reciever/Unit2/n18:8 Reciever\/Unit2\/U48:A2 1
9 Reciever/Unit2/n18:15 Reciever/Unit2/n18:14 4.859822
10 Reciever/Unit2/n18:16 Reciever/Unit2/n18:15 0.5
11 Reciever/Unit2/n18:9 Reciever\/Unit2\/U45:A2 1
12 Reciever/Unit2/n18:10 Reciever\/Unit2\/U51:A2 1
13 Reciever/Unit2/n18:10 Reciever/Unit2/n18:9 2.690179
14 Reciever/Unit2/n18:14 Reciever/Unit2/n18:13 0.5
15 Reciever/Unit2/n18:14 Reciever/Unit2/n18:8 0.2341667
16 Reciever/Unit2/n18:13 Reciever/Unit2/n18:12 1.580357
17 Reciever/Unit2/n18:11 Reciever/Unit2/n18:10 3.504464
18 Reciever/Unit2/n18:12 Reciever/Unit2/n18:11 0.5

*END

*D_NET Reciever/Unit2/n19 0.218133 //LENGTH 2.311 LUMPCC 0 DR

*CONN
*I Reciever\/Unit2\/U20:Y O *L 0 *C 14.436 8.052
*I Reciever\/Unit2\/U64:A1 I *L 0.592288 *C 13.980 9.572
*N Reciever/Unit2/n19:2 *C 13.980 9.559
*N Reciever/Unit2/n19:3 *C 13.980 8.218
*N Reciever/Unit2/n19:4 *C 13.994 8.204
*N Reciever/Unit2/n19:5 *C 14.423 8.204
*N Reciever/Unit2/n19:6 *C 14.436 8.191
*N Reciever/Unit2/n19:7 *C 14.436 8.052

*CAP
0 Reciever\/Unit2\/U20:Y 0.001
1 Reciever\/Unit2\/U64:A1 0.001
2 Reciever/Unit2/n19:2 0.0791958
3 Reciever/Unit2/n19:3 0.08062848
4 Reciever/Unit2/n19:4 0.01954788
5 Reciever/Unit2/n19:5 0.01954788
6 Reciever/Unit2/n19:6 0.009322803
7 Reciever/Unit2/n19:7 0.007890124

*RES
0 Reciever\/Unit2\/U20:Y Reciever/Unit2/n19:7 1
1 Reciever/Unit2/n19:2 Reciever\/Unit2\/U64:A1 1
2 Reciever/Unit2/n19:3 Reciever/Unit2/n19:2 2.394643
3 Reciever/Unit2/n19:4 Reciever/Unit2/n19:3 0.5
4 Reciever/Unit2/n19:6 Reciever/Unit2/n19:5 0.5
5 Reciever/Unit2/n19:5 Reciever/Unit2/n19:4 0.7660714
6 Reciever/Unit2/n19:7 Reciever/Unit2/n19:6 0.2325

*END

*D_NET Reciever/Unit2/n22 0.1244224 //LENGTH 1.509 LUMPCC 0 DR

*CONN
*I Reciever\/Unit2\/U112:Y O *L 0 *C 19.452 9.876
*I Reciever\/Unit2\/U110:A2 I *L 0.549494 *C 18.692 10.484
*N Reciever/Unit2/n22:2 *C 18.693 10.484
*N Reciever/Unit2/n22:3 *C 19.452 10.484
*N Reciever/Unit2/n22:4 *C 19.452 9.889

*CAP
0 Reciever\/Unit2\/U112:Y 0.001
1 Reciever\/Unit2\/U110:A2 0.001
2 Reciever/Unit2/n22:2 0.03129242
3 Reciever/Unit2/n22:3 0.06498621
4 Reciever/Unit2/n22:4 0.02614372

*RES
0 Reciever\/Unit2\/U112:Y Reciever/Unit2/n22:4 1
1 Reciever/Unit2/n22:2 Reciever\/Unit2\/U110:A2 1
2 Reciever/Unit2/n22:4 Reciever/Unit2/n22:3 1.061607
3 Reciever/Unit2/n22:3 Reciever/Unit2/n22:2 1.355357

*END

*D_NET Reciever/Unit2/n23 0.7325162 //LENGTH 7.772 LUMPCC 0 DR

*CONN
*I Reciever\/Unit2\/U6:Y O *L 0 *C 22.188 9.268
*I Reciever\/Unit2\/U94:A3 I *L 0.451138 *C 17.172 9.572
*I Reciever\/Unit2\/U34:A4 I *L 0.545401 *C 22.036 11.396
*N Reciever/Unit2/n23:3 *C 22.036 11.383
*N Reciever/Unit2/n23:4 *C 17.172 9.559
*N Reciever/Unit2/n23:5 *C 17.172 9.420
*N Reciever/Unit2/n23:6 *C 17.186 9.420
*N Reciever/Unit2/n23:7 *C 22.023 9.420
*N Reciever/Unit2/n23:8 *C 22.036 9.420
*N Reciever/Unit2/n23:9 *C 22.188 9.420
*N Reciever/Unit2/n23:10 *C 22.188 9.282

*CAP
0 Reciever\/Unit2\/U6:Y 0.001
1 Reciever\/Unit2\/U94:A3 0.001
2 Reciever\/Unit2\/U34:A4 0.001
3 Reciever/Unit2/n23:3 0.121743
4 Reciever/Unit2/n23:4 0.01271538
5 Reciever/Unit2/n23:5 0.01414806
6 Reciever/Unit2/n23:6 0.2099477
7 Reciever/Unit2/n23:7 0.2099477
8 Reciever/Unit2/n23:8 0.1318583
9 Reciever/Unit2/n23:9 0.02082187
10 Reciever/Unit2/n23:10 0.008334278

*RES
0 Reciever\/Unit2\/U6:Y Reciever/Unit2/n23:10 1
1 Reciever/Unit2/n23:10 Reciever/Unit2/n23:9 0.2473215
2 Reciever/Unit2/n23:3 Reciever\/Unit2\/U34:A4 1
3 Reciever/Unit2/n23:8 Reciever/Unit2/n23:7 0.5
4 Reciever/Unit2/n23:8 Reciever/Unit2/n23:3 3.504465
5 Reciever/Unit2/n23:7 Reciever/Unit2/n23:6 8.637501
6 Reciever/Unit2/n23:5 Reciever/Unit2/n23:4 0.2325
7 Reciever/Unit2/n23:6 Reciever/Unit2/n23:5 0.5
8 Reciever/Unit2/n23:4 Reciever\/Unit2\/U94:A3 1
9 Reciever/Unit2/n23:9 Reciever/Unit2/n23:8 0.2714286

*END

*D_NET Reciever/Unit2/n24 0.6649764 //LENGTH 5.502 LUMPCC 0 DR

*CONN
*I Reciever\/Unit2\/U15:Y O *L 0 *C 19.756 3.188
*I Reciever\/Unit2\/U101:A1 I *L 0.478845 *C 19.452 4.404
*I Reciever\/Unit2\/U98:A1 I *L 0.492533 *C 19.756 7.748
*N Reciever/Unit2/n24:3 *C 19.756 7.735
*N Reciever/Unit2/n24:4 *C 19.756 5.012
*N Reciever/Unit2/n24:5 *C 19.452 5.012
*N Reciever/Unit2/n24:6 *C 19.452 4.404
*N Reciever/Unit2/n24:7 *C 19.452 4.100
*N Reciever/Unit2/n24:8 *C 19.756 4.100
*N Reciever/Unit2/n24:9 *C 19.756 3.202

*CAP
0 Reciever\/Unit2\/U15:Y 0.001
1 Reciever\/Unit2\/U101:A1 0.001
2 Reciever\/Unit2\/U98:A1 0.001
3 Reciever/Unit2/n24:3 0.165457
4 Reciever/Unit2/n24:4 0.1841949
5 Reciever/Unit2/n24:5 0.06019027
6 Reciever/Unit2/n24:6 0.06507721
7 Reciever/Unit2/n24:7 0.04011988
8 Reciever/Unit2/n24:8 0.08358872
9 Reciever/Unit2/n24:9 0.06334852

*RES
0 Reciever\/Unit2\/U15:Y Reciever/Unit2/n24:9 1
1 Reciever/Unit2/n24:3 Reciever\/Unit2\/U98:A1 1
2 Reciever/Unit2/n24:9 Reciever/Unit2/n24:8 1.604465
3 Reciever/Unit2/n24:6 Reciever\/Unit2\/U101:A1 1
4 Reciever/Unit2/n24:6 Reciever/Unit2/n24:5 1.085714
5 Reciever/Unit2/n24:7 Reciever/Unit2/n24:6 0.5428572
6 Reciever/Unit2/n24:5 Reciever/Unit2/n24:4 0.5428572
7 Reciever/Unit2/n24:8 Reciever/Unit2/n24:7 0.5428571
8 Reciever/Unit2/n24:4 Reciever/Unit2/n24:3 4.861608

*END

*D_NET Reciever/Unit2/n26 1.534222 //LENGTH 15.210 LUMPCC 0 DR

*CONN
*I Reciever\/Unit2\/U8:Y O *L 0 *C 30.396 5.924
*I Reciever\/Unit2\/U80:A3 I *L 0.535173 *C 30.548 2.124
*I Reciever\/Unit2\/U79:A1 I *L 0.492533 *C 32.372 2.884
*I Reciever\/Unit2\/U75:A3 I *L 0.535173 *C 32.524 5.164
*I Reciever\/Unit2\/U77:A4 I *L 0.545401 *C 33.740 1.364
*I Reciever\/Unit2\/U81:A3 I *L 0.535173 *C 30.244 8.508
*N Reciever/Unit2/n26:6 *C 30.244 8.495
*N Reciever/Unit2/n26:7 *C 30.244 6.380
*N Reciever/Unit2/n26:8 *C 30.396 6.380
*N Reciever/Unit2/n26:9 *C 33.740 1.364
*N Reciever/Unit2/n26:10 *C 33.740 1.504
*N Reciever/Unit2/n26:11 *C 33.727 1.516
*N Reciever/Unit2/n26:12 *C 32.524 5.151
*N Reciever/Unit2/n26:13 *C 32.524 2.884
*N Reciever/Unit2/n26:14 *C 32.372 2.884
*N Reciever/Unit2/n26:15 *C 32.372 1.530
*N Reciever/Unit2/n26:16 *C 32.372 1.516
*N Reciever/Unit2/n26:17 *C 30.562 1.516
*N Reciever/Unit2/n26:18 *C 30.548 1.530
*N Reciever/Unit2/n26:19 *C 30.548 2.111
*N Reciever/Unit2/n26:20 *C 30.396 2.124
*N Reciever/Unit2/n26:21 *C 30.396 5.924

*CAP
0 Reciever\/Unit2\/U8:Y 0.001
1 Reciever\/Unit2\/U80:A3 0.001
2 Reciever\/Unit2\/U79:A1 0.001
3 Reciever\/Unit2\/U75:A3 0.001
4 Reciever\/Unit2\/U77:A4 0.001
5 Reciever\/Unit2\/U81:A3 0.001
6 Reciever/Unit2/n26:6 0.1102122
7 Reciever/Unit2/n26:7 0.1222921
8 Reciever/Unit2/n26:8 0.0360435
9 Reciever/Unit2/n26:9 0.0107116
10 Reciever/Unit2/n26:10 0.01214428
11 Reciever/Unit2/n26:11 0.05603758
12 Reciever/Unit2/n26:12 0.152998
13 Reciever/Unit2/n26:13 0.165609
14 Reciever/Unit2/n26:14 0.08926772
15 Reciever/Unit2/n26:15 0.08189425
16 Reciever/Unit2/n26:16 0.1247504
17 Reciever/Unit2/n26:17 0.06634057
18 Reciever/Unit2/n26:18 0.0309383
19 Reciever/Unit2/n26:19 0.03846913
20 Reciever/Unit2/n26:20 0.2077566
21 Reciever/Unit2/n26:21 0.2227567

*RES
0 Reciever\/Unit2\/U8:Y Reciever/Unit2/n26:21 1
1 Reciever/Unit2/n26:12 Reciever\/Unit2\/U75:A3 1
2 Reciever/Unit2/n26:10 Reciever/Unit2/n26:9 0.2325
3 Reciever/Unit2/n26:11 Reciever/Unit2/n26:10 0.5
4 Reciever/Unit2/n26:9 Reciever\/Unit2\/U77:A4 1
5 Reciever/Unit2/n26:14 Reciever\/Unit2\/U79:A1 1
6 Reciever/Unit2/n26:14 Reciever/Unit2/n26:13 0.2714286
7 Reciever/Unit2/n26:15 Reciever/Unit2/n26:14 2.41875
8 Reciever/Unit2/n26:16 Reciever/Unit2/n26:15 0.5
9 Reciever/Unit2/n26:16 Reciever/Unit2/n26:11 2.41875
10 Reciever/Unit2/n26:19 Reciever\/Unit2\/U80:A3 1
11 Reciever/Unit2/n26:19 Reciever/Unit2/n26:18 1.0375
12 Reciever/Unit2/n26:18 Reciever/Unit2/n26:17 0.5
13 Reciever/Unit2/n26:17 Reciever/Unit2/n26:16 3.233036
14 Reciever/Unit2/n26:21 Reciever/Unit2/n26:20 6.785715
15 Reciever/Unit2/n26:21 Reciever/Unit2/n26:8 0.8142858
16 Reciever/Unit2/n26:6 Reciever\/Unit2\/U81:A3 1
17 Reciever/Unit2/n26:7 Reciever/Unit2/n26:6 3.775893
18 Reciever/Unit2/n26:8 Reciever/Unit2/n26:7 0.2714286
19 Reciever/Unit2/n26:20 Reciever/Unit2/n26:19 0.2714286
20 Reciever/Unit2/n26:13 Reciever/Unit2/n26:12 4.047322

*END

*D_NET Reciever/Unit2/n27 0.5363126 //LENGTH 5.840 LUMPCC 0 DR

*CONN
*I Reciever\/Unit2\/U7:Y O *L 0 *C 30.548 4.708
*I Reciever\/Unit2\/U82:A1 I *L 0.545591 *C 28.572 6.380
*I Reciever\/Unit2\/U83:A1 I *L 0.545591 *C 27.204 6.380
*N Reciever/Unit2/n27:3 *C 27.204 6.248
*N Reciever/Unit2/n27:4 *C 27.204 6.368
*N Reciever/Unit2/n27:5 *C 27.218 6.380
*N Reciever/Unit2/n27:6 *C 28.572 6.248
*N Reciever/Unit2/n27:7 *C 28.572 6.368
*N Reciever/Unit2/n27:8 *C 28.559 6.380
*N Reciever/Unit2/n27:9 *C 28.572 6.367
*N Reciever/Unit2/n27:10 *C 28.572 5.785
*N Reciever/Unit2/n27:11 *C 28.585 5.772
*N Reciever/Unit2/n27:12 *C 30.535 5.772
*N Reciever/Unit2/n27:13 *C 30.548 5.759
*N Reciever/Unit2/n27:14 *C 30.548 4.721

*CAP
0 Reciever\/Unit2\/U7:Y 0.001
1 Reciever\/Unit2\/U82:A1 0.001
2 Reciever\/Unit2\/U83:A1 0.001
3 Reciever/Unit2/n27:3 0.01318821
4 Reciever/Unit2/n27:4 0.005034252
5 Reciever/Unit2/n27:5 0.06178972
6 Reciever/Unit2/n27:6 0.01544422
7 Reciever/Unit2/n27:7 0.007290253
8 Reciever/Unit2/n27:8 0.05941805
9 Reciever/Unit2/n27:9 0.02301901
10 Reciever/Unit2/n27:10 0.02301901
11 Reciever/Unit2/n27:11 0.08122608
12 Reciever/Unit2/n27:12 0.08122554
13 Reciever/Unit2/n27:13 0.08204547
14 Reciever/Unit2/n27:14 0.08061279

*RES
0 Reciever\/Unit2\/U7:Y Reciever/Unit2/n27:14 1
1 Reciever/Unit2/n27:7 Reciever\/Unit2\/U82:A1 1
2 Reciever/Unit2/n27:7 Reciever/Unit2/n27:6 0.1991667
3 Reciever/Unit2/n27:8 Reciever/Unit2/n27:7 0.5
4 Reciever/Unit2/n27:8 Reciever/Unit2/n27:5 2.394643
5 Reciever/Unit2/n27:9 Reciever/Unit2/n27:8 0.5
6 Reciever/Unit2/n27:11 Reciever/Unit2/n27:10 0.5
7 Reciever/Unit2/n27:10 Reciever/Unit2/n27:9 1.0375
8 Reciever/Unit2/n27:13 Reciever/Unit2/n27:12 0.5
9 Reciever/Unit2/n27:12 Reciever/Unit2/n27:11 3.480357
10 Reciever/Unit2/n27:14 Reciever/Unit2/n27:13 1.851786
11 Reciever/Unit2/n27:4 Reciever\/Unit2\/U83:A1 1
12 Reciever/Unit2/n27:4 Reciever/Unit2/n27:3 0.1991667
13 Reciever/Unit2/n27:5 Reciever/Unit2/n27:4 0.5

*END

*D_NET Reciever/Unit2/n28 0.2238847 //LENGTH 2.615 LUMPCC 0 DR

*CONN
*I Reciever\/Unit2\/U11:Y O *L 0 *C 21.580 5.924
*I Reciever\/Unit2\/U84:A1 I *L 0.492533 *C 23.252 6.228
*N Reciever/Unit2/n28:2 *C 23.252 6.228
*N Reciever/Unit2/n28:3 *C 23.252 6.368
*N Reciever/Unit2/n28:4 *C 23.239 6.380
*N Reciever/Unit2/n28:5 *C 21.594 6.380
*N Reciever/Unit2/n28:6 *C 21.580 6.367
*N Reciever/Unit2/n28:7 *C 21.580 5.938

*CAP
0 Reciever\/Unit2\/U11:Y 0.001
1 Reciever\/Unit2\/U84:A1 0.001
2 Reciever/Unit2/n28:2 0.01022602
3 Reciever/Unit2/n28:3 0.0116587
4 Reciever/Unit2/n28:4 0.06784134
5 Reciever/Unit2/n28:5 0.06784134
6 Reciever/Unit2/n28:6 0.032875
7 Reciever/Unit2/n28:7 0.03144232

*RES
0 Reciever\/Unit2\/U11:Y Reciever/Unit2/n28:7 1
1 Reciever/Unit2/n28:2 Reciever\/Unit2\/U84:A1 1
2 Reciever/Unit2/n28:3 Reciever/Unit2/n28:2 0.2325
3 Reciever/Unit2/n28:4 Reciever/Unit2/n28:3 0.5
4 Reciever/Unit2/n28:6 Reciever/Unit2/n28:5 0.5
5 Reciever/Unit2/n28:5 Reciever/Unit2/n28:4 2.9375
6 Reciever/Unit2/n28:7 Reciever/Unit2/n28:6 0.7660714

*END

*D_NET Reciever/Unit2/n29 1.404644 //LENGTH 12.648 LUMPCC 0 DR

*CONN
*I Reciever\/Unit2\/U5:Y O *L 0 *C 9.420 14.132
*I Reciever\/Unit2\/U38:A3 I *L 0.520528 *C 10.180 11.852
*I Reciever\/Unit2\/U53:A3 I *L 0.520528 *C 10.180 8.812
*I Reciever\/Unit2\/U58:A3 I *L 0.520528 *C 9.724 5.468
*I Reciever\/Unit2\/U36:A3 I *L 0.520528 *C 12.156 12.156
*N Reciever/Unit2/n29:5 *C 12.156 11.974
*N Reciever/Unit2/n29:6 *C 12.156 12.144
*N Reciever/Unit2/n29:7 *C 12.143 12.156
*N Reciever/Unit2/n29:8 *C 9.724 5.482
*N Reciever/Unit2/n29:9 *C 9.724 6.367
*N Reciever/Unit2/n29:10 *C 9.738 6.380
*N Reciever/Unit2/n29:11 *C 10.167 6.380
*N Reciever/Unit2/n29:12 *C 10.180 6.394
*N Reciever/Unit2/n29:13 *C 10.180 8.812
*N Reciever/Unit2/n29:14 *C 10.180 11.852
*N Reciever/Unit2/n29:15 *C 10.180 12.143
*N Reciever/Unit2/n29:16 *C 10.180 12.156
*N Reciever/Unit2/n29:17 *C 9.434 12.156
*N Reciever/Unit2/n29:18 *C 9.420 12.170
*N Reciever/Unit2/n29:19 *C 9.420 14.119

*CAP
0 Reciever\/Unit2\/U5:Y 0.001
1 Reciever\/Unit2\/U38:A3 0.001
2 Reciever\/Unit2\/U53:A3 0.001
3 Reciever\/Unit2\/U58:A3 0.001
4 Reciever\/Unit2\/U36:A3 0.001
5 Reciever/Unit2/n29:5 0.01511814
6 Reciever/Unit2/n29:6 0.008941025
7 Reciever/Unit2/n29:7 0.08843492
8 Reciever/Unit2/n29:8 0.06577011
9 Reciever/Unit2/n29:9 0.06720279
10 Reciever/Unit2/n29:10 0.02029061
11 Reciever/Unit2/n29:11 0.02029061
12 Reciever/Unit2/n29:12 0.1406794
13 Reciever/Unit2/n29:13 0.3365114
14 Reciever/Unit2/n29:14 0.2146603
15 Reciever/Unit2/n29:15 0.01882831
16 Reciever/Unit2/n29:16 0.1270603
17 Reciever/Unit2/n29:17 0.03625313
18 Reciever/Unit2/n29:18 0.1204882
19 Reciever/Unit2/n29:19 0.1191153

*RES
0 Reciever\/Unit2\/U5:Y Reciever/Unit2/n29:19 1
1 Reciever/Unit2/n29:6 Reciever\/Unit2\/U36:A3 1
2 Reciever/Unit2/n29:6 Reciever/Unit2/n29:5 0.2825
3 Reciever/Unit2/n29:7 Reciever/Unit2/n29:6 0.5
4 Reciever/Unit2/n29:15 Reciever/Unit2/n29:14 0.5187501
5 Reciever/Unit2/n29:16 Reciever/Unit2/n29:15 0.5
6 Reciever/Unit2/n29:16 Reciever/Unit2/n29:7 3.504464
7 Reciever/Unit2/n29:14 Reciever\/Unit2\/U38:A3 1
8 Reciever/Unit2/n29:14 Reciever/Unit2/n29:13 5.428572
9 Reciever/Unit2/n29:13 Reciever\/Unit2\/U53:A3 1
10 Reciever/Unit2/n29:13 Reciever/Unit2/n29:12 4.31875
11 Reciever/Unit2/n29:12 Reciever/Unit2/n29:11 0.5
12 Reciever/Unit2/n29:11 Reciever/Unit2/n29:10 0.7660714
13 Reciever/Unit2/n29:9 Reciever/Unit2/n29:8 1.580357
14 Reciever/Unit2/n29:10 Reciever/Unit2/n29:9 0.5
15 Reciever/Unit2/n29:8 Reciever\/Unit2\/U58:A3 1
16 Reciever/Unit2/n29:18 Reciever/Unit2/n29:17 0.5
17 Reciever/Unit2/n29:17 Reciever/Unit2/n29:16 1.333036
18 Reciever/Unit2/n29:19 Reciever/Unit2/n29:18 3.480357

*END

*D_NET Reciever/Unit2/n31 0.2110678 //LENGTH 1.852 LUMPCC 0 DR

*CONN
*I Reciever\/Unit2\/U73:Y O *L 0 *C 19.756 11.684
*I Reciever\/Unit2\/U66:A2 I *L 0.458594 *C 19.908 13.068
*N Reciever/Unit2/n31:2 *C 19.908 13.055
*N Reciever/Unit2/n31:3 *C 19.908 12.308
*N Reciever/Unit2/n31:4 *C 19.756 12.308
*N Reciever/Unit2/n31:5 *C 19.756 11.713
*N Reciever/Unit2/n31:6 *C 19.756 11.700

*CAP
0 Reciever\/Unit2\/U73:Y 0.008147062
1 Reciever\/Unit2\/U66:A2 0.001
2 Reciever/Unit2/n31:2 0.05099859
3 Reciever/Unit2/n31:3 0.06298295
4 Reciever/Unit2/n31:4 0.04606121
5 Reciever/Unit2/n31:5 0.03580635
6 Reciever/Unit2/n31:6 0.006071663

*RES
0 Reciever\/Unit2\/U73:Y Reciever/Unit2/n31:6 0.09166668
1 Reciever/Unit2/n31:2 Reciever\/Unit2\/U66:A2 1
2 Reciever/Unit2/n31:6 Reciever/Unit2/n31:5 1
3 Reciever/Unit2/n31:5 Reciever/Unit2/n31:4 1.061607
4 Reciever/Unit2/n31:4 Reciever/Unit2/n31:3 0.2714286
5 Reciever/Unit2/n31:3 Reciever/Unit2/n31:2 1.333036

*END

*D_NET Reciever/Unit2/n32 1.422773 //LENGTH 12.118 LUMPCC 0 DR

*CONN
*I Reciever\/Unit2\/U13:Y O *L 0 *C 19.148 2.580
*I Reciever\/Unit2\/U101:A3 I *L 0.484798 *C 19.908 5.164
*I Reciever\/Unit2\/U98:A3 I *L 0.520528 *C 19.604 8.508
*I Reciever\/Unit2\/U111:A1 I *L 0.545591 *C 18.236 6.380
*I Reciever\/Unit2\/U69:A1 I *L 0.545591 *C 18.540 9.724
*N Reciever/Unit2/n32:5 *C 18.540 9.723
*N Reciever/Unit2/n32:6 *C 18.236 6.381
*N Reciever/Unit2/n32:7 *C 18.236 8.508
*N Reciever/Unit2/n32:8 *C 18.540 8.521
*N Reciever/Unit2/n32:9 *C 18.553 8.508
*N Reciever/Unit2/n32:10 *C 19.591 8.508
*N Reciever/Unit2/n32:11 *C 19.605 8.508
*N Reciever/Unit2/n32:12 *C 19.908 8.508
*N Reciever/Unit2/n32:13 *C 19.908 5.164
*N Reciever/Unit2/n32:14 *C 19.908 2.580
*N Reciever/Unit2/n32:15 *C 19.149 2.580

*CAP
0 Reciever\/Unit2\/U13:Y 0.001
1 Reciever\/Unit2\/U101:A3 0.001
2 Reciever\/Unit2\/U98:A3 0.001
3 Reciever\/Unit2\/U111:A1 0.001
4 Reciever\/Unit2\/U69:A1 0.001
5 Reciever/Unit2/n32:5 0.0559104
6 Reciever/Unit2/n32:6 0.1228916
7 Reciever/Unit2/n32:7 0.1411375
8 Reciever/Unit2/n32:8 0.07178412
9 Reciever/Unit2/n32:9 0.04853019
10 Reciever/Unit2/n32:10 0.04853019
11 Reciever/Unit2/n32:11 0.009245337
12 Reciever/Unit2/n32:12 0.26451
13 Reciever/Unit2/n32:13 0.420308
14 Reciever/Unit2/n32:14 0.2068781
15 Reciever/Unit2/n32:15 0.02804777

*RES
0 Reciever\/Unit2\/U13:Y Reciever/Unit2/n32:15 1
1 Reciever/Unit2/n32:13 Reciever\/Unit2\/U101:A3 1
2 Reciever/Unit2/n32:13 Reciever/Unit2/n32:12 5.971429
3 Reciever/Unit2/n32:11 Reciever\/Unit2\/U98:A3 1
4 Reciever/Unit2/n32:11 Reciever/Unit2/n32:10 0.5
5 Reciever/Unit2/n32:15 Reciever/Unit2/n32:14 1.355357
6 Reciever/Unit2/n32:5 Reciever\/Unit2\/U69:A1 1
7 Reciever/Unit2/n32:10 Reciever/Unit2/n32:9 1.851786
8 Reciever/Unit2/n32:8 Reciever/Unit2/n32:7 0.5428572
9 Reciever/Unit2/n32:8 Reciever/Unit2/n32:5 2.145536
10 Reciever/Unit2/n32:9 Reciever/Unit2/n32:8 0.5
11 Reciever/Unit2/n32:6 Reciever\/Unit2\/U111:A1 1
12 Reciever/Unit2/n32:7 Reciever/Unit2/n32:6 3.798215
13 Reciever/Unit2/n32:14 Reciever/Unit2/n32:13 4.614286
14 Reciever/Unit2/n32:12 Reciever/Unit2/n32:11 0.5410715

*END

*D_NET Reciever/Unit2/n69 0.8552675 //LENGTH 9.245 LUMPCC 0 DR

*CONN
*I Reciever\/Unit2\/U17:Y O *L 0 *C 25.532 4.708
*I Reciever\/Unit2\/U100:A1 I *L 0.478845 *C 24.620 7.748
*I Reciever\/Unit2\/U96:A1 I *L 0.608353 *C 24.164 9.420
*I Reciever\/Unit2\/U102:A3 I *L 0.535173 *C 27.356 8.508
*N Reciever/Unit2/n69:4 *C 27.356 8.495
*N Reciever/Unit2/n69:5 *C 27.356 8.218
*N Reciever/Unit2/n69:6 *C 27.343 8.204
*N Reciever/Unit2/n69:7 *C 24.164 9.407
*N Reciever/Unit2/n69:8 *C 24.164 8.204
*N Reciever/Unit2/n69:9 *C 24.315 8.204
*N Reciever/Unit2/n69:10 *C 24.329 8.204
*N Reciever/Unit2/n69:11 *C 24.620 7.762
*N Reciever/Unit2/n69:12 *C 24.620 8.191
*N Reciever/Unit2/n69:13 *C 24.620 8.204
*N Reciever/Unit2/n69:14 *C 25.532 8.204
*N Reciever/Unit2/n69:15 *C 25.532 8.191
*N Reciever/Unit2/n69:16 *C 25.532 4.721

*CAP
0 Reciever\/Unit2\/U17:Y 0.001
1 Reciever\/Unit2\/U100:A1 0.001
2 Reciever\/Unit2\/U96:A1 0.001
3 Reciever\/Unit2\/U102:A3 0.001
4 Reciever/Unit2/n69:4 0.02041392
5 Reciever/Unit2/n69:5 0.0218466
6 Reciever/Unit2/n69:6 0.07687675
7 Reciever/Unit2/n69:7 0.06956016
8 Reciever/Unit2/n69:8 0.08213118
9 Reciever/Unit2/n69:9 0.006393904
10 Reciever/Unit2/n69:10 0.01323342
11 Reciever/Unit2/n69:11 0.03626718
12 Reciever/Unit2/n69:12 0.03769986
13 Reciever/Unit2/n69:13 0.05287784
14 Reciever/Unit2/n69:14 0.1165212
15 Reciever/Unit2/n69:15 0.159439
16 Reciever/Unit2/n69:16 0.1580064

*RES
0 Reciever\/Unit2\/U17:Y Reciever/Unit2/n69:16 1
1 Reciever/Unit2/n69:5 Reciever/Unit2/n69:4 0.4946429
2 Reciever/Unit2/n69:6 Reciever/Unit2/n69:5 0.5
3 Reciever/Unit2/n69:4 Reciever\/Unit2\/U102:A3 1
4 Reciever/Unit2/n69:15 Reciever/Unit2/n69:14 0.5
5 Reciever/Unit2/n69:14 Reciever/Unit2/n69:13 1.628572
6 Reciever/Unit2/n69:14 Reciever/Unit2/n69:6 3.233036
7 Reciever/Unit2/n69:16 Reciever/Unit2/n69:15 6.194643
8 Reciever/Unit2/n69:12 Reciever/Unit2/n69:11 0.7660714
9 Reciever/Unit2/n69:13 Reciever/Unit2/n69:12 0.5
10 Reciever/Unit2/n69:13 Reciever/Unit2/n69:10 0.5187501
11 Reciever/Unit2/n69:11 Reciever\/Unit2\/U100:A1 1
12 Reciever/Unit2/n69:9 Reciever/Unit2/n69:8 0.2696429
13 Reciever/Unit2/n69:10 Reciever/Unit2/n69:9 0.5
14 Reciever/Unit2/n69:7 Reciever\/Unit2\/U96:A1 1
15 Reciever/Unit2/n69:8 Reciever/Unit2/n69:7 2.147322

*END

*D_NET Reciever/Unit2/n110 0.6383795 //LENGTH 6.806 LUMPCC 0 DR

*CONN
*I Reciever\/Unit2\/U16:Y O *L 0 *C 26.444 6.532
*I Reciever\/Unit2\/U102:A1 I *L 0.467813 *C 27.713 7.900
*I Reciever\/Unit2\/U100:A3 I *L 0.484798 *C 25.076 8.508
*I Reciever\/Unit2\/U70:A3 I *L 0.5071 *C 25.380 9.572
*N Reciever/Unit2/n110:4 *C 25.380 9.559
*N Reciever/Unit2/n110:5 *C 25.076 8.521
*N Reciever/Unit2/n110:6 *C 25.076 8.812
*N Reciever/Unit2/n110:7 *C 25.380 8.825
*N Reciever/Unit2/n110:8 *C 25.380 8.811
*N Reciever/Unit2/n110:9 *C 25.380 8.508
*N Reciever/Unit2/n110:10 *C 26.582 8.508
*N Reciever/Unit2/n110:11 *C 26.596 8.495
*N Reciever/Unit2/n110:12 *C 27.660 7.900
*N Reciever/Unit2/n110:13 *C 27.659 7.900
*N Reciever/Unit2/n110:14 *C 26.596 7.900
*N Reciever/Unit2/n110:15 *C 26.444 7.900
*N Reciever/Unit2/n110:16 *C 26.444 6.546

*CAP
0 Reciever\/Unit2\/U16:Y 0.001
1 Reciever\/Unit2\/U102:A1 0.009982009
2 Reciever\/Unit2\/U100:A3 0.001
3 Reciever\/Unit2\/U70:A3 0.001
4 Reciever/Unit2/n110:4 0.03567807
5 Reciever/Unit2/n110:5 0.02001773
6 Reciever/Unit2/n110:6 0.03872045
7 Reciever/Unit2/n110:7 0.05200857
8 Reciever/Unit2/n110:8 0.01019093
9 Reciever/Unit2/n110:9 0.0730637
10 Reciever/Unit2/n110:10 0.05812834
11 Reciever/Unit2/n110:11 0.03517793
12 Reciever/Unit2/n110:12 0.00790661
13 Reciever/Unit2/n110:13 0.04044389
14 Reciever/Unit2/n110:14 0.08709297
15 Reciever/Unit2/n110:15 0.08886846
16 Reciever/Unit2/n110:16 0.07809975

*RES
0 Reciever\/Unit2\/U16:Y Reciever/Unit2/n110:16 1
1 Reciever/Unit2/n110:12 Reciever\/Unit2\/U102:A1 0.09166667
2 Reciever/Unit2/n110:13 Reciever/Unit2/n110:12 1
3 Reciever/Unit2/n110:16 Reciever/Unit2/n110:15 2.41875
4 Reciever/Unit2/n110:4 Reciever\/Unit2\/U70:A3 1
5 Reciever/Unit2/n110:11 Reciever/Unit2/n110:10 0.5
6 Reciever/Unit2/n110:10 Reciever/Unit2/n110:9 2.147322
7 Reciever/Unit2/n110:7 Reciever/Unit2/n110:6 0.5428572
8 Reciever/Unit2/n110:7 Reciever/Unit2/n110:4 1.308929
9 Reciever/Unit2/n110:8 Reciever/Unit2/n110:7 0.5
10 Reciever/Unit2/n110:5 Reciever\/Unit2\/U100:A3 1
11 Reciever/Unit2/n110:6 Reciever/Unit2/n110:5 0.5187501
12 Reciever/Unit2/n110:15 Reciever/Unit2/n110:14 0.2714286
13 Reciever/Unit2/n110:14 Reciever/Unit2/n110:13 1.898214
14 Reciever/Unit2/n110:14 Reciever/Unit2/n110:11 1.061607
15 Reciever/Unit2/n110:9 Reciever/Unit2/n110:8 0.5410715

*END

*D_NET Reciever/Unit2/n111 0.4231634 //LENGTH 4.507 LUMPCC 0 DR

*CONN
*I Reciever\/Unit2\/U12:Y O *L 0 *C 23.100 8.341
*I Reciever\/Unit2\/U99:A1 I *L 0.608353 *C 21.580 7.900
*I Reciever\/Unit2\/U96:A3 I *L 0.5071 *C 23.708 9.572
*N Reciever/Unit2/n111:3 *C 23.708 9.559
*N Reciever/Unit2/n111:4 *C 23.708 8.521
*N Reciever/Unit2/n111:5 *C 23.695 8.508
*N Reciever/Unit2/n111:6 *C 21.580 7.913
*N Reciever/Unit2/n111:7 *C 21.580 8.495
*N Reciever/Unit2/n111:8 *C 21.594 8.508
*N Reciever/Unit2/n111:9 *C 23.100 8.508
*N Reciever/Unit2/n111:10 *C 23.100 8.495
*N Reciever/Unit2/n111:11 *C 23.100 8.356
*N Reciever/Unit2/n111:12 *C 23.100 8.356

*CAP
0 Reciever\/Unit2\/U12:Y 0.008094233
1 Reciever\/Unit2\/U99:A1 0.001
2 Reciever\/Unit2\/U96:A3 0.001
3 Reciever/Unit2/n111:3 0.05898021
4 Reciever/Unit2/n111:4 0.06041289
5 Reciever/Unit2/n111:5 0.02661083
6 Reciever/Unit2/n111:6 0.04017103
7 Reciever/Unit2/n111:7 0.04160371
8 Reciever/Unit2/n111:8 0.06611259
9 Reciever/Unit2/n111:9 0.09509563
10 Reciever/Unit2/n111:10 0.008883317
11 Reciever/Unit2/n111:11 0.009180138
12 Reciever/Unit2/n111:12 0.006018836

*RES
0 Reciever\/Unit2\/U12:Y Reciever/Unit2/n111:12 0.09166668
1 Reciever/Unit2/n111:4 Reciever/Unit2/n111:3 1.851786
2 Reciever/Unit2/n111:5 Reciever/Unit2/n111:4 0.5
3 Reciever/Unit2/n111:3 Reciever\/Unit2\/U96:A3 1
4 Reciever/Unit2/n111:10 Reciever/Unit2/n111:9 0.5
5 Reciever/Unit2/n111:9 Reciever/Unit2/n111:8 2.690179
6 Reciever/Unit2/n111:9 Reciever/Unit2/n111:5 1.061607
7 Reciever/Unit2/n111:12 Reciever/Unit2/n111:11 1
8 Reciever/Unit2/n111:11 Reciever/Unit2/n111:10 0.2325
9 Reciever/Unit2/n111:7 Reciever/Unit2/n111:6 1.0375
10 Reciever/Unit2/n111:8 Reciever/Unit2/n111:7 0.5
11 Reciever/Unit2/n111:6 Reciever\/Unit2\/U99:A1 1

*END

*D_NET Reciever/Unit2/n112 0.811148 //LENGTH 9.220 LUMPCC 0 DR

*CONN
*I Reciever\/Unit2\/U18:Y O *L 0 *C 29.028 8.052
*I Reciever\/Unit2\/U81:A4 I *L 0.545401 *C 30.092 8.052
*I Reciever\/Unit2\/U103:A2 I *L 0.46235 *C 25.988 9.420
*I Reciever\/Unit2\/U100:A4 I *L 0.504436 *C 24.959 7.768
*I Reciever\/Unit2\/U70:A1 I *L 0.608353 *C 24.924 9.420
*N Reciever/Unit2/n112:5 *C 24.924 9.407
*N Reciever/Unit2/n112:6 *C 24.924 7.748
*N Reciever/Unit2/n112:7 *C 24.924 7.762
*N Reciever/Unit2/n112:8 *C 24.924 9.116
*N Reciever/Unit2/n112:9 *C 24.938 9.116
*N Reciever/Unit2/n112:10 *C 25.988 9.419
*N Reciever/Unit2/n112:11 *C 25.988 9.130
*N Reciever/Unit2/n112:12 *C 25.988 9.116
*N Reciever/Unit2/n112:13 *C 29.015 9.116
*N Reciever/Unit2/n112:14 *C 29.028 9.103
*N Reciever/Unit2/n112:15 *C 30.092 8.052
*N Reciever/Unit2/n112:16 *C 30.092 8.191
*N Reciever/Unit2/n112:17 *C 30.079 8.204
*N Reciever/Unit2/n112:18 *C 29.042 8.204
*N Reciever/Unit2/n112:19 *C 29.028 8.218
*N Reciever/Unit2/n112:20 *C 29.028 8.065

*CAP
0 Reciever\/Unit2\/U18:Y 0.001
1 Reciever\/Unit2\/U81:A4 0.001
2 Reciever\/Unit2\/U103:A2 0.001
3 Reciever\/Unit2\/U100:A4 0.009629682
4 Reciever\/Unit2\/U70:A1 0.001
5 Reciever/Unit2/n112:5 0.0172838
6 Reciever/Unit2/n112:6 0.007554283
7 Reciever/Unit2/n112:7 0.07831469
8 Reciever/Unit2/n112:8 0.09910657
9 Reciever/Unit2/n112:9 0.0419058
10 Reciever/Unit2/n112:10 0.01590263
11 Reciever/Unit2/n112:11 0.01716236
12 Reciever/Unit2/n112:12 0.1661901
13 Reciever/Unit2/n112:13 0.1219121
14 Reciever/Unit2/n112:14 0.04181169
15 Reciever/Unit2/n112:15 0.0164745
16 Reciever/Unit2/n112:16 0.01790718
17 Reciever/Unit2/n112:17 0.04646705
18 Reciever/Unit2/n112:18 0.04646705
19 Reciever/Unit2/n112:19 0.05433754
20 Reciever/Unit2/n112:20 0.008720953

*RES
0 Reciever\/Unit2\/U18:Y Reciever/Unit2/n112:20 1
1 Reciever/Unit2/n112:20 Reciever/Unit2/n112:19 0.255
2 Reciever/Unit2/n112:19 Reciever/Unit2/n112:18 0.5
3 Reciever/Unit2/n112:19 Reciever/Unit2/n112:14 1.580357
4 Reciever/Unit2/n112:18 Reciever/Unit2/n112:17 1.851786
5 Reciever/Unit2/n112:16 Reciever/Unit2/n112:15 0.2325
6 Reciever/Unit2/n112:17 Reciever/Unit2/n112:16 0.5
7 Reciever/Unit2/n112:15 Reciever\/Unit2\/U81:A4 1
8 Reciever/Unit2/n112:14 Reciever/Unit2/n112:13 0.5
9 Reciever/Unit2/n112:13 Reciever/Unit2/n112:12 5.404464
10 Reciever/Unit2/n112:11 Reciever/Unit2/n112:10 0.5169643
11 Reciever/Unit2/n112:12 Reciever/Unit2/n112:11 0.5
12 Reciever/Unit2/n112:12 Reciever/Unit2/n112:9 1.875893
13 Reciever/Unit2/n112:10 Reciever\/Unit2\/U103:A2 1
14 Reciever/Unit2/n112:5 Reciever\/Unit2\/U70:A1 1
15 Reciever/Unit2/n112:8 Reciever/Unit2/n112:7 2.41875
16 Reciever/Unit2/n112:8 Reciever/Unit2/n112:5 0.5187501
17 Reciever/Unit2/n112:9 Reciever/Unit2/n112:8 0.5
18 Reciever/Unit2/n112:6 Reciever\/Unit2\/U100:A4 0.09166668
19 Reciever/Unit2/n112:7 Reciever/Unit2/n112:6 1

*END

*D_NET Reciever/Unit2/n113 0.4548862 //LENGTH 5.175 LUMPCC 0 DR

*CONN
*I Reciever\/Unit2\/U14:Y O *L 0 *C 17.628 5.924
*I Reciever\/Unit2\/U67:A2 I *L 0.537549 *C 18.388 4.556
*I Reciever\/Unit2\/U101:A4 I *L 0.504436 *C 19.756 4.252
*I Reciever\/Unit2\/U111:A2 I *L 0.46235 *C 18.084 6.076
*N Reciever/Unit2/n113:4 *C 18.084 6.075
*N Reciever/Unit2/n113:5 *C 19.756 4.266
*N Reciever/Unit2/n113:6 *C 19.756 4.543
*N Reciever/Unit2/n113:7 *C 19.742 4.556
*N Reciever/Unit2/n113:8 *C 18.388 4.374
*N Reciever/Unit2/n113:9 *C 18.388 4.543
*N Reciever/Unit2/n113:10 *C 18.388 4.556
*N Reciever/Unit2/n113:11 *C 18.098 4.556
*N Reciever/Unit2/n113:12 *C 18.084 4.570
*N Reciever/Unit2/n113:13 *C 18.084 5.468
*N Reciever/Unit2/n113:14 *C 18.070 5.468
*N Reciever/Unit2/n113:15 *C 17.642 5.468
*N Reciever/Unit2/n113:16 *C 17.628 5.482
*N Reciever/Unit2/n113:17 *C 17.628 5.910

*CAP
0 Reciever\/Unit2\/U14:Y 0.001
1 Reciever\/Unit2\/U67:A2 0.001
2 Reciever\/Unit2\/U101:A4 0.001
3 Reciever\/Unit2\/U111:A2 0.001
4 Reciever/Unit2/n113:4 0.02411314
5 Reciever/Unit2/n113:5 0.02555316
6 Reciever/Unit2/n113:6 0.02698584
7 Reciever/Unit2/n113:7 0.05849485
8 Reciever/Unit2/n113:8 0.01461158
9 Reciever/Unit2/n113:9 0.008434465
10 Reciever/Unit2/n113:10 0.07273354
11 Reciever/Unit2/n113:11 0.01186647
12 Reciever/Unit2/n113:12 0.04268203
13 Reciever/Unit2/n113:13 0.07042711
14 Reciever/Unit2/n113:14 0.01641442
15 Reciever/Unit2/n113:15 0.01641442
16 Reciever/Unit2/n113:16 0.03179391
17 Reciever/Unit2/n113:17 0.03036124

*RES
0 Reciever\/Unit2\/U14:Y Reciever/Unit2/n113:17 1
1 Reciever/Unit2/n113:6 Reciever/Unit2/n113:5 0.4946429
2 Reciever/Unit2/n113:7 Reciever/Unit2/n113:6 0.5
3 Reciever/Unit2/n113:5 Reciever\/Unit2\/U101:A4 1
4 Reciever/Unit2/n113:9 Reciever\/Unit2\/U67:A2 1
5 Reciever/Unit2/n113:9 Reciever/Unit2/n113:8 0.2825
6 Reciever/Unit2/n113:10 Reciever/Unit2/n113:9 0.5
7 Reciever/Unit2/n113:10 Reciever/Unit2/n113:7 2.41875
8 Reciever/Unit2/n113:4 Reciever\/Unit2\/U111:A2 1
9 Reciever/Unit2/n113:12 Reciever/Unit2/n113:11 0.5
10 Reciever/Unit2/n113:11 Reciever/Unit2/n113:10 0.5187501
11 Reciever/Unit2/n113:13 Reciever/Unit2/n113:12 1.604464
12 Reciever/Unit2/n113:13 Reciever/Unit2/n113:4 1.083929
13 Reciever/Unit2/n113:14 Reciever/Unit2/n113:13 0.5
14 Reciever/Unit2/n113:16 Reciever/Unit2/n113:15 0.5
15 Reciever/Unit2/n113:15 Reciever/Unit2/n113:14 0.7660714
16 Reciever/Unit2/n113:17 Reciever/Unit2/n113:16 0.7660714

*END

*D_NET Reciever/HFSNET_0 0.5599553 //LENGTH 7.350 LUMPCC 0 DR

*CONN
*I Reciever\/Unit1\/baud_clk_reg:Q O *L 0 *C 17.932 20.972
*I Reciever\/Unit2\/HFSBUF_884_3:A I *L 0.553217 *C 16.868 16.108
*I Reciever\/Unit1\/HFSBUF_505_2:A I *L 0.553217 *C 16.260 16.108
*N Reciever/HFSNET_0:3 *C 17.932 20.790
*N Reciever/HFSNET_0:4 *C 16.260 15.926
*N Reciever/HFSNET_0:5 *C 16.260 16.096
*N Reciever/HFSNET_0:6 *C 16.274 16.108
*N Reciever/HFSNET_0:7 *C 16.855 16.108
*N Reciever/HFSNET_0:8 *C 16.868 16.122
*N Reciever/HFSNET_0:9 *C 16.868 20.959
*N Reciever/HFSNET_0:10 *C 16.881 20.972
*N Reciever/HFSNET_0:11 *C 17.919 20.972
*N Reciever/HFSNET_0:12 *C 17.932 20.960

*CAP
0 Reciever\/Unit1\/baud_clk_reg:Q 0.001
1 Reciever\/Unit2\/HFSBUF_884_3:A 0.001
2 Reciever\/Unit1\/HFSBUF_505_2:A 0.001
3 Reciever/HFSNET_0:3 0.0114089
4 Reciever/HFSNET_0:4 0.0128157
5 Reciever/HFSNET_0:5 0.006638582
6 Reciever/HFSNET_0:6 0.02594993
7 Reciever/HFSNET_0:7 0.02594993
8 Reciever/HFSNET_0:8 0.1955258
9 Reciever/HFSNET_0:9 0.1993307
10 Reciever/HFSNET_0:10 0.037052
11 Reciever/HFSNET_0:11 0.037052
12 Reciever/HFSNET_0:12 0.005231784

*RES
0 Reciever\/Unit1\/baud_clk_reg:Q Reciever/HFSNET_0:12 1
1 Reciever/HFSNET_0:9 Reciever/HFSNET_0:8 8.637501
2 Reciever/HFSNET_0:10 Reciever/HFSNET_0:9 0.5
3 Reciever/HFSNET_0:12 Reciever/HFSNET_0:11 0.5
4 Reciever/HFSNET_0:12 Reciever/HFSNET_0:3 0.2825
5 Reciever/HFSNET_0:11 Reciever/HFSNET_0:10 1.851786
6 Reciever/HFSNET_0:8 Reciever\/Unit2\/HFSBUF_884_3:A 1
7 Reciever/HFSNET_0:8 Reciever/HFSNET_0:7 0.5
8 Reciever/HFSNET_0:7 Reciever/HFSNET_0:6 1.0375
9 Reciever/HFSNET_0:5 Reciever\/Unit1\/HFSBUF_505_2:A 1
10 Reciever/HFSNET_0:5 Reciever/HFSNET_0:4 0.2825
11 Reciever/HFSNET_0:6 Reciever/HFSNET_0:5 0.5

*END

*D_NET Reciever/Unit2/next_state[1] 0.8661733 //LENGTH 8.640 LUMPCC 0 DR

*CONN
*I Reciever\/Unit2\/next_state_reg[1]:Q O *L 0 *C 25.502 2.884
*I Reciever\/Unit2\/U108:A1 I *L 0.592288 *C 21.124 2.884
*I Reciever\/Unit2\/U104:A1 I *L 0.545591 *C 26.596 0.908
*N Reciever/Unit2/next_state[1]:3 *C 26.596 0.909
*N Reciever/Unit2/next_state[1]:4 *C 26.596 2.415
*N Reciever/Unit2/next_state[1]:5 *C 26.582 2.428
*N Reciever/Unit2/next_state[1]:6 *C 21.124 2.871
*N Reciever/Unit2/next_state[1]:7 *C 21.124 2.442
*N Reciever/Unit2/next_state[1]:8 *C 21.137 2.428
*N Reciever/Unit2/next_state[1]:9 *C 25.684 2.428
*N Reciever/Unit2/next_state[1]:10 *C 25.683 2.428
*N Reciever/Unit2/next_state[1]:11 *C 25.532 2.428
*N Reciever/Unit2/next_state[1]:12 *C 25.532 2.871
*N Reciever/Unit2/next_state[1]:13 *C 25.532 2.884

*CAP
0 Reciever\/Unit2\/next_state_reg[1]:Q 0.01440942
1 Reciever\/Unit2\/U108:A1 0.001
2 Reciever\/Unit2\/U104:A1 0.001
3 Reciever/Unit2/next_state[1]:3 0.09069187
4 Reciever/Unit2/next_state[1]:4 0.09212455
5 Reciever/Unit2/next_state[1]:5 0.04525506
6 Reciever/Unit2/next_state[1]:6 0.02519028
7 Reciever/Unit2/next_state[1]:7 0.02662296
8 Reciever/Unit2/next_state[1]:8 0.2116976
9 Reciever/Unit2/next_state[1]:9 0.2593248
10 Reciever/Unit2/next_state[1]:10 0.006870425
11 Reciever/Unit2/next_state[1]:11 0.04548517
12 Reciever/Unit2/next_state[1]:12 0.03416713
13 Reciever/Unit2/next_state[1]:13 0.01233402

*RES
0 Reciever\/Unit2\/next_state_reg[1]:Q Reciever/Unit2/next_state[1]:13 0.09818182
1 Reciever/Unit2/next_state[1]:4 Reciever/Unit2/next_state[1]:3 2.688393
2 Reciever/Unit2/next_state[1]:5 Reciever/Unit2/next_state[1]:4 0.5
3 Reciever/Unit2/next_state[1]:3 Reciever\/Unit2\/U104:A1 1
4 Reciever/Unit2/next_state[1]:10 Reciever/Unit2/next_state[1]:9 0.5
5 Reciever/Unit2/next_state[1]:9 Reciever/Unit2/next_state[1]:8 8.11875
6 Reciever/Unit2/next_state[1]:9 Reciever/Unit2/next_state[1]:5 1.604464
7 Reciever/Unit2/next_state[1]:13 Reciever/Unit2/next_state[1]:12 1
8 Reciever/Unit2/next_state[1]:12 Reciever/Unit2/next_state[1]:11 0.7901786
9 Reciever/Unit2/next_state[1]:7 Reciever/Unit2/next_state[1]:6 0.7660714
10 Reciever/Unit2/next_state[1]:8 Reciever/Unit2/next_state[1]:7 0.5
11 Reciever/Unit2/next_state[1]:6 Reciever\/Unit2\/U108:A1 1
12 Reciever/Unit2/next_state[1]:11 Reciever/Unit2/next_state[1]:10 0.2696429

*END

*D_NET Reciever/Unit2/next_state[0] 0.1899231 //LENGTH 2.453 LUMPCC 0 DR

*CONN
*I Reciever\/Unit2\/next_state_reg[0]:Q O *L 0 *C 24.924 0.908
*I Reciever\/Unit2\/U106:A1 I *L 0.545591 *C 25.684 0.908
*I Reciever\/Unit2\/U104:A2 I *L 0.46235 *C 26.444 1.212
*N Reciever/Unit2/next_state[0]:3 *C 24.924 0.726
*N Reciever/Unit2/next_state[0]:4 *C 26.444 1.211
*N Reciever/Unit2/next_state[0]:5 *C 26.444 0.922
*N Reciever/Unit2/next_state[0]:6 *C 26.431 0.908
*N Reciever/Unit2/next_state[0]:7 *C 25.684 0.776
*N Reciever/Unit2/next_state[0]:8 *C 25.684 0.896
*N Reciever/Unit2/next_state[0]:9 *C 25.684 0.908
*N Reciever/Unit2/next_state[0]:10 *C 24.938 0.908
*N Reciever/Unit2/next_state[0]:11 *C 24.924 0.896

*CAP
0 Reciever\/Unit2\/next_state_reg[0]:Q 0.001
1 Reciever\/Unit2\/U106:A1 0.001
2 Reciever\/Unit2\/U104:A2 0.001
3 Reciever/Unit2/next_state[0]:3 0.01501847
4 Reciever/Unit2/next_state[0]:4 0.0175529
5 Reciever/Unit2/next_state[0]:5 0.01881263
6 Reciever/Unit2/next_state[0]:6 0.02547
7 Reciever/Unit2/next_state[0]:7 0.01306567
8 Reciever/Unit2/next_state[0]:8 0.004911708
9 Reciever/Unit2/next_state[0]:9 0.05455788
10 Reciever/Unit2/next_state[0]:10 0.02869251
11 Reciever/Unit2/next_state[0]:11 0.008841358

*RES
0 Reciever\/Unit2\/next_state_reg[0]:Q Reciever/Unit2/next_state[0]:11 1
1 Reciever/Unit2/next_state[0]:5 Reciever/Unit2/next_state[0]:4 0.5169644
2 Reciever/Unit2/next_state[0]:6 Reciever/Unit2/next_state[0]:5 0.5
3 Reciever/Unit2/next_state[0]:4 Reciever\/Unit2\/U104:A2 1
4 Reciever/Unit2/next_state[0]:8 Reciever\/Unit2\/U106:A1 1
5 Reciever/Unit2/next_state[0]:8 Reciever/Unit2/next_state[0]:7 0.1991667
6 Reciever/Unit2/next_state[0]:9 Reciever/Unit2/next_state[0]:8 0.5
7 Reciever/Unit2/next_state[0]:9 Reciever/Unit2/next_state[0]:6 1.333036
8 Reciever/Unit2/next_state[0]:11 Reciever/Unit2/next_state[0]:10 0.5
9 Reciever/Unit2/next_state[0]:11 Reciever/Unit2/next_state[0]:3 0.2825
10 Reciever/Unit2/next_state[0]:10 Reciever/Unit2/next_state[0]:9 1.333036

*END

*D_NET Reciever/Unit2/stop_count[3] 0.5526835 //LENGTH 6.429 LUMPCC 0 DR

*CONN
*I Reciever\/Unit2\/stop_count_reg[3]:Q O *L 0 *C 30.244 8.812
*I Reciever\/Unit2\/U81:A1 I *L 0.467813 *C 29.788 7.900
*I Reciever\/Unit2\/U103:A1 I *L 0.545591 *C 26.140 9.724
*N Reciever/Unit2/stop_count[3]:3 *C 26.140 9.592
*N Reciever/Unit2/stop_count[3]:4 *C 26.140 9.712
*N Reciever/Unit2/stop_count[3]:5 *C 26.154 9.724
*N Reciever/Unit2/stop_count[3]:6 *C 29.788 9.724
*N Reciever/Unit2/stop_count[3]:7 *C 29.788 9.421
*N Reciever/Unit2/stop_count[3]:8 *C 29.788 9.407
*N Reciever/Unit2/stop_count[3]:9 *C 29.788 7.913
*N Reciever/Unit2/stop_count[3]:10 *C 29.788 8.812
*N Reciever/Unit2/stop_count[3]:11 *C 30.243 8.812

*CAP
0 Reciever\/Unit2\/stop_count_reg[3]:Q 0.001
1 Reciever\/Unit2\/U81:A1 0.001
2 Reciever\/Unit2\/U103:A1 0.001
3 Reciever/Unit2/stop_count[3]:3 0.01583676
4 Reciever/Unit2/stop_count[3]:4 0.0076828
5 Reciever/Unit2/stop_count[3]:5 0.1572419
6 Reciever/Unit2/stop_count[3]:6 0.1734297
7 Reciever/Unit2/stop_count[3]:7 0.009466545
8 Reciever/Unit2/stop_count[3]:8 0.02609264
9 Reciever/Unit2/stop_count[3]:9 0.04315827
10 Reciever/Unit2/stop_count[3]:10 0.0971059
11 Reciever/Unit2/stop_count[3]:11 0.01966909

*RES
0 Reciever\/Unit2\/stop_count_reg[3]:Q Reciever/Unit2/stop_count[3]:11 1
1 Reciever/Unit2/stop_count[3]:11 Reciever/Unit2/stop_count[3]:10 0.8125
2 Reciever/Unit2/stop_count[3]:9 Reciever\/Unit2\/U81:A1 1
3 Reciever/Unit2/stop_count[3]:8 Reciever/Unit2/stop_count[3]:7 0.5
4 Reciever/Unit2/stop_count[3]:7 Reciever/Unit2/stop_count[3]:6 0.5410715
5 Reciever/Unit2/stop_count[3]:4 Reciever\/Unit2\/U103:A1 1
6 Reciever/Unit2/stop_count[3]:4 Reciever/Unit2/stop_count[3]:3 0.1991667
7 Reciever/Unit2/stop_count[3]:5 Reciever/Unit2/stop_count[3]:4 0.5
8 Reciever/Unit2/stop_count[3]:10 Reciever/Unit2/stop_count[3]:9 1.604464
9 Reciever/Unit2/stop_count[3]:10 Reciever/Unit2/stop_count[3]:8 1.061607
10 Reciever/Unit2/stop_count[3]:6 Reciever/Unit2/stop_count[3]:5 6.490179

*END

*D_NET Reciever/Unit2/stop_count[2] 1.268346 //LENGTH 13.990 LUMPCC 0 DR

*CONN
*I Reciever\/Unit2\/stop_count_reg[2]:Q O *L 0 *C 36.932 5.012
*I Reciever\/Unit2\/U74:A1 I *L 1.174364 *C 32.828 8.052
*I Reciever\/Unit2\/U105:A3 I *L 0.5071 *C 29.180 4.404
*I Reciever\/Unit2\/U75:A1 I *L 0.467813 *C 32.068 4.556
*N Reciever/Unit2/stop_count[2]:4 *C 32.068 4.543
*N Reciever/Unit2/stop_count[2]:5 *C 29.180 4.391
*N Reciever/Unit2/stop_count[2]:6 *C 29.180 3.962
*N Reciever/Unit2/stop_count[2]:7 *C 29.194 3.948
*N Reciever/Unit2/stop_count[2]:8 *C 32.055 3.948
*N Reciever/Unit2/stop_count[2]:9 *C 32.068 3.962
*N Reciever/Unit2/stop_count[2]:10 *C 32.068 4.252
*N Reciever/Unit2/stop_count[2]:11 *C 32.081 4.252
*N Reciever/Unit2/stop_count[2]:12 *C 32.828 4.252
*N Reciever/Unit2/stop_count[2]:13 *C 32.828 8.039
*N Reciever/Unit2/stop_count[2]:14 *C 32.828 4.570
*N Reciever/Unit2/stop_count[2]:15 *C 32.828 4.556
*N Reciever/Unit2/stop_count[2]:16 *C 33.740 4.556
*N Reciever/Unit2/stop_count[2]:17 *C 33.740 4.860
*N Reciever/Unit2/stop_count[2]:18 *C 36.919 4.860
*N Reciever/Unit2/stop_count[2]:19 *C 36.932 4.860
*N Reciever/Unit2/stop_count[2]:20 *C 36.932 5.000

*CAP
0 Reciever\/Unit2\/stop_count_reg[2]:Q 0.001
1 Reciever\/Unit2\/U74:A1 0.001
2 Reciever\/Unit2\/U105:A3 0.001
3 Reciever\/Unit2\/U75:A1 0.001
4 Reciever/Unit2/stop_count[2]:4 0.0203703
5 Reciever/Unit2/stop_count[2]:5 0.02069625
6 Reciever/Unit2/stop_count[2]:6 0.02212893
7 Reciever/Unit2/stop_count[2]:7 0.1305299
8 Reciever/Unit2/stop_count[2]:8 0.1305299
9 Reciever/Unit2/stop_count[2]:9 0.02180297
10 Reciever/Unit2/stop_count[2]:10 0.04597817
11 Reciever/Unit2/stop_count[2]:11 0.03292396
12 Reciever/Unit2/stop_count[2]:12 0.04839552
13 Reciever/Unit2/stop_count[2]:13 0.2205645
14 Reciever/Unit2/stop_count[2]:14 0.2219972
15 Reciever/Unit2/stop_count[2]:15 0.05287873
16 Reciever/Unit2/stop_count[2]:16 0.05398571
17 Reciever/Unit2/stop_count[2]:17 0.1207223
18 Reciever/Unit2/stop_count[2]:18 0.106516
19 Reciever/Unit2/stop_count[2]:19 0.007849162
20 Reciever/Unit2/stop_count[2]:20 0.006476203

*RES
0 Reciever\/Unit2\/stop_count_reg[2]:Q Reciever/Unit2/stop_count[2]:20 1
1 Reciever/Unit2/stop_count[2]:19 Reciever/Unit2/stop_count[2]:18 0.5
2 Reciever/Unit2/stop_count[2]:18 Reciever/Unit2/stop_count[2]:17 5.675893
3 Reciever/Unit2/stop_count[2]:20 Reciever/Unit2/stop_count[2]:19 0.2325
4 Reciever/Unit2/stop_count[2]:14 Reciever/Unit2/stop_count[2]:13 6.194643
5 Reciever/Unit2/stop_count[2]:15 Reciever/Unit2/stop_count[2]:14 0.5
6 Reciever/Unit2/stop_count[2]:15 Reciever/Unit2/stop_count[2]:12 0.5428572
7 Reciever/Unit2/stop_count[2]:13 Reciever\/Unit2\/U74:A1 1
8 Reciever/Unit2/stop_count[2]:4 Reciever\/Unit2\/U75:A1 1
9 Reciever/Unit2/stop_count[2]:10 Reciever/Unit2/stop_count[2]:9 0.51875
10 Reciever/Unit2/stop_count[2]:10 Reciever/Unit2/stop_count[2]:4 0.51875
11 Reciever/Unit2/stop_count[2]:11 Reciever/Unit2/stop_count[2]:10 0.5
12 Reciever/Unit2/stop_count[2]:9 Reciever/Unit2/stop_count[2]:8 0.5
13 Reciever/Unit2/stop_count[2]:8 Reciever/Unit2/stop_count[2]:7 5.108929
14 Reciever/Unit2/stop_count[2]:6 Reciever/Unit2/stop_count[2]:5 0.7660714
15 Reciever/Unit2/stop_count[2]:7 Reciever/Unit2/stop_count[2]:6 0.5
16 Reciever/Unit2/stop_count[2]:5 Reciever\/Unit2\/U105:A3 1
17 Reciever/Unit2/stop_count[2]:12 Reciever/Unit2/stop_count[2]:11 1.333036
18 Reciever/Unit2/stop_count[2]:16 Reciever/Unit2/stop_count[2]:15 1.628572
19 Reciever/Unit2/stop_count[2]:17 Reciever/Unit2/stop_count[2]:16 0.5428572

*END

*D_NET Reciever/Unit2/stop_count[1] 1.351841 //LENGTH 16.350 LUMPCC 0 DR

*CONN
*I Reciever\/Unit2\/stop_count_reg[1]:Q O *L 0 *C 37.084 2.124
*I Reciever\/Unit2\/U77:A1 I *L 0.467813 *C 33.436 1.212
*I Reciever\/Unit2\/U78:A2 I *L 0.684351 *C 31.889 1.364
*I Reciever\/Unit2\/U76:A1 I *L 0.545591 *C 31.004 6.380
*I Reciever\/Unit2\/U105:A1 I *L 0.608353 *C 28.724 4.556
*N Reciever/Unit2/stop_count[1]:5 *C 28.724 4.374
*N Reciever/Unit2/stop_count[1]:6 *C 28.724 4.543
*N Reciever/Unit2/stop_count[1]:7 *C 28.738 4.556
*N Reciever/Unit2/stop_count[1]:8 *C 31.004 6.379
*N Reciever/Unit2/stop_count[1]:9 *C 31.004 4.570
*N Reciever/Unit2/stop_count[1]:10 *C 31.004 4.556
*N Reciever/Unit2/stop_count[1]:11 *C 31.902 4.556
*N Reciever/Unit2/stop_count[1]:12 *C 31.916 4.543
*N Reciever/Unit2/stop_count[1]:13 *C 31.916 1.403
*N Reciever/Unit2/stop_count[1]:14 *C 31.916 2.124
*N Reciever/Unit2/stop_count[1]:15 *C 31.930 2.124
*N Reciever/Unit2/stop_count[1]:16 *C 33.422 2.124
*N Reciever/Unit2/stop_count[1]:17 *C 33.436 2.111
*N Reciever/Unit2/stop_count[1]:18 *C 33.436 1.226
*N Reciever/Unit2/stop_count[1]:19 *C 33.450 1.212
*N Reciever/Unit2/stop_count[1]:20 *C 33.892 1.212
*N Reciever/Unit2/stop_count[1]:21 *C 33.892 1.516
*N Reciever/Unit2/stop_count[1]:22 *C 37.071 1.516
*N Reciever/Unit2/stop_count[1]:23 *C 37.084 1.530
*N Reciever/Unit2/stop_count[1]:24 *C 37.084 2.111

*CAP
0 Reciever\/Unit2\/stop_count_reg[1]:Q 0.001
1 Reciever\/Unit2\/U77:A1 0.001
2 Reciever\/Unit2\/U78:A2 0.001
3 Reciever\/Unit2\/U76:A1 0.001
4 Reciever\/Unit2\/U105:A1 0.001
5 Reciever/Unit2/stop_count[1]:5 0.0138244
6 Reciever/Unit2/stop_count[1]:6 0.007647281
7 Reciever/Unit2/stop_count[1]:7 0.09139115
8 Reciever/Unit2/stop_count[1]:8 0.09578663
9 Reciever/Unit2/stop_count[1]:9 0.09721931
10 Reciever/Unit2/stop_count[1]:10 0.1296384
11 Reciever/Unit2/stop_count[1]:11 0.03587501
12 Reciever/Unit2/stop_count[1]:12 0.1284159
13 Reciever/Unit2/stop_count[1]:13 0.0325735
14 Reciever/Unit2/stop_count[1]:14 0.1673114
15 Reciever/Unit2/stop_count[1]:15 0.06686383
16 Reciever/Unit2/stop_count[1]:16 0.06686383
17 Reciever/Unit2/stop_count[1]:17 0.04628624
18 Reciever/Unit2/stop_count[1]:18 0.04248135
19 Reciever/Unit2/stop_count[1]:19 0.02078386
20 Reciever/Unit2/stop_count[1]:20 0.03461038
21 Reciever/Unit2/stop_count[1]:21 0.1182396
22 Reciever/Unit2/stop_count[1]:22 0.1044131
23 Reciever/Unit2/stop_count[1]:23 0.02312649
24 Reciever/Unit2/stop_count[1]:24 0.02348994

*RES
0 Reciever\/Unit2\/stop_count_reg[1]:Q Reciever/Unit2/stop_count[1]:24 1
1 Reciever/Unit2/stop_count[1]:18 Reciever\/Unit2\/U77:A1 1
2 Reciever/Unit2/stop_count[1]:18 Reciever/Unit2/stop_count[1]:17 1.580357
3 Reciever/Unit2/stop_count[1]:19 Reciever/Unit2/stop_count[1]:18 0.5
4 Reciever/Unit2/stop_count[1]:23 Reciever/Unit2/stop_count[1]:22 0.5
5 Reciever/Unit2/stop_count[1]:22 Reciever/Unit2/stop_count[1]:21 5.675893
6 Reciever/Unit2/stop_count[1]:24 Reciever/Unit2/stop_count[1]:23 1.0375
7 Reciever/Unit2/stop_count[1]:17 Reciever/Unit2/stop_count[1]:16 0.5
8 Reciever/Unit2/stop_count[1]:16 Reciever/Unit2/stop_count[1]:15 2.666072
9 Reciever/Unit2/stop_count[1]:14 Reciever/Unit2/stop_count[1]:13 1.2875
10 Reciever/Unit2/stop_count[1]:14 Reciever/Unit2/stop_count[1]:12 4.31875
11 Reciever/Unit2/stop_count[1]:15 Reciever/Unit2/stop_count[1]:14 0.5
12 Reciever/Unit2/stop_count[1]:13 Reciever\/Unit2\/U78:A2 0.5
13 Reciever/Unit2/stop_count[1]:12 Reciever/Unit2/stop_count[1]:11 0.5
14 Reciever/Unit2/stop_count[1]:11 Reciever/Unit2/stop_count[1]:10 1.604464
15 Reciever/Unit2/stop_count[1]:9 Reciever/Unit2/stop_count[1]:8 3.23125
16 Reciever/Unit2/stop_count[1]:10 Reciever/Unit2/stop_count[1]:9 0.5
17 Reciever/Unit2/stop_count[1]:10 Reciever/Unit2/stop_count[1]:7 4.047322
18 Reciever/Unit2/stop_count[1]:8 Reciever\/Unit2\/U76:A1 1
19 Reciever/Unit2/stop_count[1]:6 Reciever\/Unit2\/U105:A1 1
20 Reciever/Unit2/stop_count[1]:6 Reciever/Unit2/stop_count[1]:5 0.2825
21 Reciever/Unit2/stop_count[1]:7 Reciever/Unit2/stop_count[1]:6 0.5
22 Reciever/Unit2/stop_count[1]:20 Reciever/Unit2/stop_count[1]:19 0.7901786
23 Reciever/Unit2/stop_count[1]:21 Reciever/Unit2/stop_count[1]:20 0.5428572

*END

*D_NET Reciever/Unit2/stop_count[0] 1.021619 //LENGTH 9.418 LUMPCC 0 DR

*CONN
*I Reciever\/Unit2\/stop_count_reg[0]:Q O *L 0 *C 30.852 0.908
*I Reciever\/Unit2\/U80:A1 I *L 0.467813 *C 31.004 2.732
*I Reciever\/Unit2\/U76:A2 I *L 0.46235 *C 30.852 6.076
*I Reciever\/Unit2\/U105:A2 I *L 0.546428 *C 28.876 4.404
*N Reciever/Unit2/stop_count[0]:4 *C 28.876 4.392
*N Reciever/Unit2/stop_count[0]:5 *C 28.876 4.252
*N Reciever/Unit2/stop_count[0]:6 *C 28.890 4.252
*N Reciever/Unit2/stop_count[0]:7 *C 30.838 6.076
*N Reciever/Unit2/stop_count[0]:8 *C 30.700 6.076
*N Reciever/Unit2/stop_count[0]:9 *C 30.700 4.266
*N Reciever/Unit2/stop_count[0]:10 *C 30.700 4.252
*N Reciever/Unit2/stop_count[0]:11 *C 30.991 4.252
*N Reciever/Unit2/stop_count[0]:12 *C 31.004 4.239
*N Reciever/Unit2/stop_count[0]:13 *C 31.004 2.732
*N Reciever/Unit2/stop_count[0]:14 *C 31.156 2.732
*N Reciever/Unit2/stop_count[0]:15 *C 31.156 0.604
*N Reciever/Unit2/stop_count[0]:16 *C 30.852 0.604
*N Reciever/Unit2/stop_count[0]:17 *C 30.852 0.895

*CAP
0 Reciever\/Unit2\/stop_count_reg[0]:Q 0.001
1 Reciever\/Unit2\/U80:A1 0.001
2 Reciever\/Unit2\/U76:A2 0.001
3 Reciever\/Unit2\/U105:A2 0.001
4 Reciever/Unit2/stop_count[0]:4 0.009278761
5 Reciever/Unit2/stop_count[0]:5 0.01071144
6 Reciever/Unit2/stop_count[0]:6 0.08783901
7 Reciever/Unit2/stop_count[0]:7 0.005338781
8 Reciever/Unit2/stop_count[0]:8 0.1278045
9 Reciever/Unit2/stop_count[0]:9 0.1164615
10 Reciever/Unit2/stop_count[0]:10 0.1055925
11 Reciever/Unit2/stop_count[0]:11 0.01538125
12 Reciever/Unit2/stop_count[0]:12 0.1034573
13 Reciever/Unit2/stop_count[0]:13 0.1110428
14 Reciever/Unit2/stop_count[0]:14 0.1318296
15 Reciever/Unit2/stop_count[0]:15 0.13704
16 Reciever/Unit2/stop_count[0]:16 0.03693779
17 Reciever/Unit2/stop_count[0]:17 0.0189042

*RES
0 Reciever\/Unit2\/stop_count_reg[0]:Q Reciever/Unit2/stop_count[0]:17 1
1 Reciever/Unit2/stop_count[0]:13 Reciever\/Unit2\/U80:A1 1
2 Reciever/Unit2/stop_count[0]:13 Reciever/Unit2/stop_count[0]:12 2.690179
3 Reciever/Unit2/stop_count[0]:17 Reciever/Unit2/stop_count[0]:16 0.5187501
4 Reciever/Unit2/stop_count[0]:12 Reciever/Unit2/stop_count[0]:11 0.5
5 Reciever/Unit2/stop_count[0]:11 Reciever/Unit2/stop_count[0]:10 0.5187501
6 Reciever/Unit2/stop_count[0]:9 Reciever/Unit2/stop_count[0]:8 3.233036
7 Reciever/Unit2/stop_count[0]:10 Reciever/Unit2/stop_count[0]:9 0.5
8 Reciever/Unit2/stop_count[0]:10 Reciever/Unit2/stop_count[0]:6 3.233036
9 Reciever/Unit2/stop_count[0]:7 Reciever\/Unit2\/U76:A2 1
10 Reciever/Unit2/stop_count[0]:5 Reciever/Unit2/stop_count[0]:4 0.2325
11 Reciever/Unit2/stop_count[0]:6 Reciever/Unit2/stop_count[0]:5 0.5
12 Reciever/Unit2/stop_count[0]:4 Reciever\/Unit2\/U105:A2 1
13 Reciever/Unit2/stop_count[0]:8 Reciever/Unit2/stop_count[0]:7 0.2473214
14 Reciever/Unit2/stop_count[0]:16 Reciever/Unit2/stop_count[0]:15 0.5428572
15 Reciever/Unit2/stop_count[0]:15 Reciever/Unit2/stop_count[0]:14 3.8
16 Reciever/Unit2/stop_count[0]:14 Reciever/Unit2/stop_count[0]:13 0.2714286

*END

*D_NET Reciever/Unit2/frame_counter[3] 0.8206961 //LENGTH 10.061 LUMPCC 0 DR

*CONN
*I Reciever\/Unit2\/frame_counter_reg[3]:Q O *L 0 *C 20.212 1.820
*I Reciever\/Unit2\/U109:A1 I *L 0.545591 *C 16.412 3.036
*I Reciever\/Unit2\/U89:A2 I *L 0.458594 *C 15.956 4.252
*I Reciever\/Unit2\/U90:A3 I *L 0.520528 *C 14.436 5.468
*N Reciever/Unit2/frame_counter[3]:4 *C 14.436 5.455
*N Reciever/Unit2/frame_counter[3]:5 *C 14.436 4.266
*N Reciever/Unit2/frame_counter[3]:6 *C 14.450 4.252
*N Reciever/Unit2/frame_counter[3]:7 *C 15.943 4.252
*N Reciever/Unit2/frame_counter[3]:8 *C 15.956 4.239
*N Reciever/Unit2/frame_counter[3]:9 *C 15.956 3.188
*N Reciever/Unit2/frame_counter[3]:10 *C 16.412 3.188
*N Reciever/Unit2/frame_counter[3]:11 *C 16.412 3.036
*N Reciever/Unit2/frame_counter[3]:12 *C 16.412 2.746
*N Reciever/Unit2/frame_counter[3]:13 *C 16.425 2.732
*N Reciever/Unit2/frame_counter[3]:14 *C 20.198 2.732
*N Reciever/Unit2/frame_counter[3]:15 *C 20.212 2.719
*N Reciever/Unit2/frame_counter[3]:16 *C 20.212 1.834

*CAP
0 Reciever\/Unit2\/frame_counter_reg[3]:Q 0.001
1 Reciever\/Unit2\/U109:A1 0.001
2 Reciever\/Unit2\/U89:A2 0.001
3 Reciever\/Unit2\/U90:A3 0.001
4 Reciever/Unit2/frame_counter[3]:4 0.05502348
5 Reciever/Unit2/frame_counter[3]:5 0.05645616
6 Reciever/Unit2/frame_counter[3]:6 0.05967502
7 Reciever/Unit2/frame_counter[3]:7 0.05769817
8 Reciever/Unit2/frame_counter[3]:8 0.05897765
9 Reciever/Unit2/frame_counter[3]:9 0.08811345
10 Reciever/Unit2/frame_counter[3]:10 0.03135084
11 Reciever/Unit2/frame_counter[3]:11 0.02724451
12 Reciever/Unit2/frame_counter[3]:12 0.01830819
13 Reciever/Unit2/frame_counter[3]:13 0.1394635
14 Reciever/Unit2/frame_counter[3]:14 0.1394635
15 Reciever/Unit2/frame_counter[3]:15 0.04227907
16 Reciever/Unit2/frame_counter[3]:16 0.04264252

*RES
0 Reciever\/Unit2\/frame_counter_reg[3]:Q Reciever/Unit2/frame_counter[3]:16 1
1 Reciever/Unit2/frame_counter[3]:11 Reciever\/Unit2\/U109:A1 1
2 Reciever/Unit2/frame_counter[3]:11 Reciever/Unit2/frame_counter[3]:10 0.2714286
3 Reciever/Unit2/frame_counter[3]:12 Reciever/Unit2/frame_counter[3]:11 0.5187501
4 Reciever/Unit2/frame_counter[3]:13 Reciever/Unit2/frame_counter[3]:12 0.5
5 Reciever/Unit2/frame_counter[3]:15 Reciever/Unit2/frame_counter[3]:14 0.5
6 Reciever/Unit2/frame_counter[3]:14 Reciever/Unit2/frame_counter[3]:13 6.7375
7 Reciever/Unit2/frame_counter[3]:16 Reciever/Unit2/frame_counter[3]:15 1.580357
8 Reciever/Unit2/frame_counter[3]:8 Reciever\/Unit2\/U89:A2 1
9 Reciever/Unit2/frame_counter[3]:8 Reciever/Unit2/frame_counter[3]:7 0.5
10 Reciever/Unit2/frame_counter[3]:7 Reciever/Unit2/frame_counter[3]:6 2.666071
11 Reciever/Unit2/frame_counter[3]:5 Reciever/Unit2/frame_counter[3]:4 2.123214
12 Reciever/Unit2/frame_counter[3]:6 Reciever/Unit2/frame_counter[3]:5 0.5
13 Reciever/Unit2/frame_counter[3]:4 Reciever\/Unit2\/U90:A3 1
14 Reciever/Unit2/frame_counter[3]:9 Reciever/Unit2/frame_counter[3]:8 1.875893
15 Reciever/Unit2/frame_counter[3]:10 Reciever/Unit2/frame_counter[3]:9 0.8142858

*END

*D_NET Reciever/Unit2/frame_counter[2] 0.9994078 //LENGTH 12.573 LUMPCC 0 DR

*CONN
*I Reciever\/Unit2\/frame_counter_reg[2]:Q O *L 0 *C 8.934 1.168
*I Reciever\/Unit2\/U72:A2 I *L 0.458594 *C 13.068 3.036
*I Reciever\/Unit2\/U90:A2 I *L 0.447801 *C 13.980 6.076
*I Reciever\/Unit2\/U23:A1 I *L 1.174364 *C 12.308 5.924
*N Reciever/Unit2/frame_counter[2]:4 *C 12.308 5.912
*N Reciever/Unit2/frame_counter[2]:5 *C 13.980 6.062
*N Reciever/Unit2/frame_counter[2]:6 *C 13.980 5.785
*N Reciever/Unit2/frame_counter[2]:7 *C 13.966 5.772
*N Reciever/Unit2/frame_counter[2]:8 *C 12.322 5.772
*N Reciever/Unit2/frame_counter[2]:9 *C 12.308 5.785
*N Reciever/Unit2/frame_counter[2]:10 *C 12.004 5.772
*N Reciever/Unit2/frame_counter[2]:11 *C 13.068 3.050
*N Reciever/Unit2/frame_counter[2]:12 *C 13.068 3.327
*N Reciever/Unit2/frame_counter[2]:13 *C 13.055 3.340
*N Reciever/Unit2/frame_counter[2]:14 *C 12.018 3.340
*N Reciever/Unit2/frame_counter[2]:15 *C 12.004 3.340
*N Reciever/Unit2/frame_counter[2]:16 *C 12.004 1.530
*N Reciever/Unit2/frame_counter[2]:17 *C 11.991 1.516
*N Reciever/Unit2/frame_counter[2]:18 *C 8.978 1.516
*N Reciever/Unit2/frame_counter[2]:19 *C 8.964 1.503
*N Reciever/Unit2/frame_counter[2]:20 *C 8.964 1.074
*N Reciever/Unit2/frame_counter[2]:21 *C 8.964 1.060

*CAP
0 Reciever\/Unit2\/frame_counter_reg[2]:Q 0.01024255
1 Reciever\/Unit2\/U72:A2 0.001
2 Reciever\/Unit2\/U90:A2 0.001
3 Reciever\/Unit2\/U23:A1 0.001
4 Reciever/Unit2/frame_counter[2]:4 0.008903217
5 Reciever/Unit2/frame_counter[2]:5 0.01377758
6 Reciever/Unit2/frame_counter[2]:6 0.01521025
7 Reciever/Unit2/frame_counter[2]:7 0.06244628
8 Reciever/Unit2/frame_counter[2]:8 0.06244628
9 Reciever/Unit2/frame_counter[2]:9 0.02539432
10 Reciever/Unit2/frame_counter[2]:10 0.1151055
11 Reciever/Unit2/frame_counter[2]:11 0.02171875
12 Reciever/Unit2/frame_counter[2]:12 0.02315142
13 Reciever/Unit2/frame_counter[2]:13 0.04749336
14 Reciever/Unit2/frame_counter[2]:14 0.04749336
15 Reciever/Unit2/frame_counter[2]:15 0.1832697
16 Reciever/Unit2/frame_counter[2]:16 0.08322264
17 Reciever/Unit2/frame_counter[2]:17 0.1104172
18 Reciever/Unit2/frame_counter[2]:18 0.1104172
19 Reciever/Unit2/frame_counter[2]:19 0.02361712
20 Reciever/Unit2/frame_counter[2]:20 0.02391394
21 Reciever/Unit2/frame_counter[2]:21 0.008167149

*RES
0 Reciever\/Unit2\/frame_counter_reg[2]:Q Reciever/Unit2/frame_counter[2]:21 0.09166667
1 Reciever/Unit2/frame_counter[2]:4 Reciever\/Unit2\/U23:A1 1
2 Reciever/Unit2/frame_counter[2]:9 Reciever/Unit2/frame_counter[2]:8 0.5
3 Reciever/Unit2/frame_counter[2]:9 Reciever/Unit2/frame_counter[2]:4 0.2116667
4 Reciever/Unit2/frame_counter[2]:8 Reciever/Unit2/frame_counter[2]:7 2.9375
5 Reciever/Unit2/frame_counter[2]:6 Reciever/Unit2/frame_counter[2]:5 0.4946429
6 Reciever/Unit2/frame_counter[2]:7 Reciever/Unit2/frame_counter[2]:6 0.5
7 Reciever/Unit2/frame_counter[2]:5 Reciever\/Unit2\/U90:A2 1
8 Reciever/Unit2/frame_counter[2]:15 Reciever/Unit2/frame_counter[2]:14 0.5
9 Reciever/Unit2/frame_counter[2]:15 Reciever/Unit2/frame_counter[2]:10 4.342858
10 Reciever/Unit2/frame_counter[2]:14 Reciever/Unit2/frame_counter[2]:13 1.851786
11 Reciever/Unit2/frame_counter[2]:12 Reciever/Unit2/frame_counter[2]:11 0.4946429
12 Reciever/Unit2/frame_counter[2]:13 Reciever/Unit2/frame_counter[2]:12 0.5
13 Reciever/Unit2/frame_counter[2]:11 Reciever\/Unit2\/U72:A2 1
14 Reciever/Unit2/frame_counter[2]:16 Reciever/Unit2/frame_counter[2]:15 3.233036
15 Reciever/Unit2/frame_counter[2]:17 Reciever/Unit2/frame_counter[2]:16 0.5
16 Reciever/Unit2/frame_counter[2]:19 Reciever/Unit2/frame_counter[2]:18 0.5
17 Reciever/Unit2/frame_counter[2]:18 Reciever/Unit2/frame_counter[2]:17 5.380358
18 Reciever/Unit2/frame_counter[2]:21 Reciever/Unit2/frame_counter[2]:20 1
19 Reciever/Unit2/frame_counter[2]:20 Reciever/Unit2/frame_counter[2]:19 0.7660714
20 Reciever/Unit2/frame_counter[2]:10 Reciever/Unit2/frame_counter[2]:9 0.5428572

*END

*D_NET Reciever/Unit2/frame_counter[1] 1.091399 //LENGTH 13.262 LUMPCC 0 DR

*CONN
*I Reciever\/Unit2\/frame_counter_reg[1]:Q O *L 0 *C 13.372 1.820
*I Reciever\/Unit2\/U91:A2 I *L 0.529633 *C 10.788 2.732
*I Reciever\/Unit2\/U22:A1 I *L 0.954271 *C 7.444 4.708
*I Reciever\/Unit2\/U71:A2 I *L 0.458594 *C 14.284 3.036
*I Reciever\/Unit2\/U109:A2 I *L 0.46235 *C 16.260 2.732
*N Reciever/Unit2/frame_counter[1]:5 *C 16.260 2.733
*N Reciever/Unit2/frame_counter[1]:6 *C 16.260 3.022
*N Reciever/Unit2/frame_counter[1]:7 *C 16.247 3.036
*N Reciever/Unit2/frame_counter[1]:8 *C 14.284 2.854
*N Reciever/Unit2/frame_counter[1]:9 *C 14.284 3.024
*N Reciever/Unit2/frame_counter[1]:10 *C 14.284 3.036
*N Reciever/Unit2/frame_counter[1]:11 *C 7.444 4.695
*N Reciever/Unit2/frame_counter[1]:12 *C 7.444 3.050
*N Reciever/Unit2/frame_counter[1]:13 *C 7.458 3.036
*N Reciever/Unit2/frame_counter[1]:14 *C 10.788 2.746
*N Reciever/Unit2/frame_counter[1]:15 *C 10.788 3.022
*N Reciever/Unit2/frame_counter[1]:16 *C 10.788 3.036
*N Reciever/Unit2/frame_counter[1]:17 *C 13.524 3.036
*N Reciever/Unit2/frame_counter[1]:18 *C 13.524 3.022
*N Reciever/Unit2/frame_counter[1]:19 *C 13.524 1.820
*N Reciever/Unit2/frame_counter[1]:20 *C 13.373 1.820

*CAP
0 Reciever\/Unit2\/frame_counter_reg[1]:Q 0.001
1 Reciever\/Unit2\/U91:A2 0.001
2 Reciever\/Unit2\/U22:A1 0.001
3 Reciever\/Unit2\/U71:A2 0.001
4 Reciever\/Unit2\/U109:A2 0.001
5 Reciever/Unit2/frame_counter[1]:5 0.01627084
6 Reciever/Unit2/frame_counter[1]:6 0.01753057
7 Reciever/Unit2/frame_counter[1]:7 0.07922786
8 Reciever/Unit2/frame_counter[1]:8 0.01940744
9 Reciever/Unit2/frame_counter[1]:9 0.01323033
10 Reciever/Unit2/frame_counter[1]:10 0.1101378
11 Reciever/Unit2/frame_counter[1]:11 0.07410465
12 Reciever/Unit2/frame_counter[1]:12 0.07553733
13 Reciever/Unit2/frame_counter[1]:13 0.131664
14 Reciever/Unit2/frame_counter[1]:14 0.01669775
15 Reciever/Unit2/frame_counter[1]:15 0.01813043
16 Reciever/Unit2/frame_counter[1]:16 0.2432149
17 Reciever/Unit2/frame_counter[1]:17 0.1400886
18 Reciever/Unit2/frame_counter[1]:18 0.05694781
19 Reciever/Unit2/frame_counter[1]:19 0.06776901
20 Reciever/Unit2/frame_counter[1]:20 0.00644021

*RES
0 Reciever\/Unit2\/frame_counter_reg[1]:Q Reciever/Unit2/frame_counter[1]:20 1
1 Reciever/Unit2/frame_counter[1]:6 Reciever/Unit2/frame_counter[1]:5 0.5169643
2 Reciever/Unit2/frame_counter[1]:7 Reciever/Unit2/frame_counter[1]:6 0.5
3 Reciever/Unit2/frame_counter[1]:5 Reciever\/Unit2\/U109:A2 1
4 Reciever/Unit2/frame_counter[1]:9 Reciever\/Unit2\/U71:A2 1
5 Reciever/Unit2/frame_counter[1]:9 Reciever/Unit2/frame_counter[1]:8 0.2825
6 Reciever/Unit2/frame_counter[1]:10 Reciever/Unit2/frame_counter[1]:9 0.5
7 Reciever/Unit2/frame_counter[1]:10 Reciever/Unit2/frame_counter[1]:7 3.504464
8 Reciever/Unit2/frame_counter[1]:18 Reciever/Unit2/frame_counter[1]:17 0.5
9 Reciever/Unit2/frame_counter[1]:17 Reciever/Unit2/frame_counter[1]:16 4.885715
10 Reciever/Unit2/frame_counter[1]:17 Reciever/Unit2/frame_counter[1]:10 1.357143
11 Reciever/Unit2/frame_counter[1]:20 Reciever/Unit2/frame_counter[1]:19 0.2696429
12 Reciever/Unit2/frame_counter[1]:15 Reciever/Unit2/frame_counter[1]:14 0.4946429
13 Reciever/Unit2/frame_counter[1]:16 Reciever/Unit2/frame_counter[1]:15 0.5
14 Reciever/Unit2/frame_counter[1]:16 Reciever/Unit2/frame_counter[1]:13 5.947322
15 Reciever/Unit2/frame_counter[1]:14 Reciever\/Unit2\/U91:A2 1
16 Reciever/Unit2/frame_counter[1]:12 Reciever/Unit2/frame_counter[1]:11 2.9375
17 Reciever/Unit2/frame_counter[1]:13 Reciever/Unit2/frame_counter[1]:12 0.5
18 Reciever/Unit2/frame_counter[1]:11 Reciever\/Unit2\/U22:A1 1
19 Reciever/Unit2/frame_counter[1]:19 Reciever/Unit2/frame_counter[1]:18 2.147322

*END

*D_NET Reciever/Unit2/frame_counter[0] 1.435615 //LENGTH 15.392 LUMPCC 0 DR

*CONN
*I Reciever\/Unit2\/frame_counter_reg[0]:Q O *L 0 *C 7.900 1.820
*I Reciever\/Unit2\/U22:A2 I *L 1.005399 *C 7.140 4.556
*I Reciever\/Unit2\/U92:A2 I *L 0.458594 *C 9.420 3.036
*I Reciever\/Unit2\/U91:A1 I *L 0.592288 *C 10.940 2.884
*I Reciever\/Unit2\/U59:A2 I *L 0.529633 *C 11.548 7.900
*I Reciever\/Unit2\/U41:A2 I *L 0.546428 *C 9.724 7.748
*N Reciever/Unit2/frame_counter[0]:6 *C 9.724 7.761
*N Reciever/Unit2/frame_counter[0]:7 *C 9.723 7.900
*N Reciever/Unit2/frame_counter[0]:8 *C 11.548 7.718
*N Reciever/Unit2/frame_counter[0]:9 *C 11.548 7.888
*N Reciever/Unit2/frame_counter[0]:10 *C 11.535 7.900
*N Reciever/Unit2/frame_counter[0]:11 *C 9.738 7.900
*N Reciever/Unit2/frame_counter[0]:12 *C 9.724 7.888
*N Reciever/Unit2/frame_counter[0]:13 *C 9.572 7.900
*N Reciever/Unit2/frame_counter[0]:14 *C 9.572 3.644
*N Reciever/Unit2/frame_counter[0]:15 *C 10.940 2.872
*N Reciever/Unit2/frame_counter[0]:16 *C 10.940 2.732
*N Reciever/Unit2/frame_counter[0]:17 *C 10.927 2.732
*N Reciever/Unit2/frame_counter[0]:18 *C 9.434 2.732
*N Reciever/Unit2/frame_counter[0]:19 *C 9.420 2.746
*N Reciever/Unit2/frame_counter[0]:20 *C 9.420 3.036
*N Reciever/Unit2/frame_counter[0]:21 *C 9.420 3.644
*N Reciever/Unit2/frame_counter[0]:22 *C 9.407 3.644
*N Reciever/Unit2/frame_counter[0]:23 *C 7.140 4.543
*N Reciever/Unit2/frame_counter[0]:24 *C 7.140 3.658
*N Reciever/Unit2/frame_counter[0]:25 *C 7.154 3.644
*N Reciever/Unit2/frame_counter[0]:26 *C 7.900 3.644
*N Reciever/Unit2/frame_counter[0]:27 *C 7.900 3.631
*N Reciever/Unit2/frame_counter[0]:28 *C 7.900 1.834

*CAP
0 Reciever\/Unit2\/frame_counter_reg[0]:Q 0.001
1 Reciever\/Unit2\/U22:A2 0.001
2 Reciever\/Unit2\/U92:A2 0.001
3 Reciever\/Unit2\/U91:A1 0.001
4 Reciever\/Unit2\/U59:A2 0.001
5 Reciever\/Unit2\/U41:A2 0.001
6 Reciever/Unit2/frame_counter[0]:6 0.01092297
7 Reciever/Unit2/frame_counter[0]:7 0.003507802
8 Reciever/Unit2/frame_counter[0]:8 0.01456288
9 Reciever/Unit2/frame_counter[0]:9 0.008385764
10 Reciever/Unit2/frame_counter[0]:10 0.0810587
11 Reciever/Unit2/frame_counter[0]:11 0.0810587
12 Reciever/Unit2/frame_counter[0]:12 0.02318345
13 Reciever/Unit2/frame_counter[0]:13 0.2466856
14 Reciever/Unit2/frame_counter[0]:14 0.2480678
15 Reciever/Unit2/frame_counter[0]:15 0.009596265
16 Reciever/Unit2/frame_counter[0]:16 0.01102894
17 Reciever/Unit2/frame_counter[0]:17 0.07618728
18 Reciever/Unit2/frame_counter[0]:18 0.07618728
19 Reciever/Unit2/frame_counter[0]:19 0.01917353
20 Reciever/Unit2/frame_counter[0]:20 0.05841193
21 Reciever/Unit2/frame_counter[0]:21 0.04700112
22 Reciever/Unit2/frame_counter[0]:22 0.05986446
23 Reciever/Unit2/frame_counter[0]:23 0.04299206
24 Reciever/Unit2/frame_counter[0]:24 0.04442474
25 Reciever/Unit2/frame_counter[0]:25 0.02609841
26 Reciever/Unit2/frame_counter[0]:26 0.08833509
27 Reciever/Unit2/frame_counter[0]:27 0.0762586
28 Reciever/Unit2/frame_counter[0]:28 0.07662204

*RES
0 Reciever\/Unit2\/frame_counter_reg[0]:Q Reciever/Unit2/frame_counter[0]:28 1
1 Reciever/Unit2/frame_counter[0]:6 Reciever\/Unit2\/U41:A2 1
2 Reciever/Unit2/frame_counter[0]:12 Reciever/Unit2/frame_counter[0]:11 0.5
3 Reciever/Unit2/frame_counter[0]:12 Reciever/Unit2/frame_counter[0]:7 0.01
4 Reciever/Unit2/frame_counter[0]:12 Reciever/Unit2/frame_counter[0]:6 0.2116667
5 Reciever/Unit2/frame_counter[0]:11 Reciever/Unit2/frame_counter[0]:10 3.208929
6 Reciever/Unit2/frame_counter[0]:9 Reciever\/Unit2\/U59:A2 1
7 Reciever/Unit2/frame_counter[0]:9 Reciever/Unit2/frame_counter[0]:8 0.2825
8 Reciever/Unit2/frame_counter[0]:10 Reciever/Unit2/frame_counter[0]:9 0.5
9 Reciever/Unit2/frame_counter[0]:20 Reciever\/Unit2\/U92:A2 1
10 Reciever/Unit2/frame_counter[0]:20 Reciever/Unit2/frame_counter[0]:19 0.5187501
11 Reciever/Unit2/frame_counter[0]:19 Reciever/Unit2/frame_counter[0]:18 0.5
12 Reciever/Unit2/frame_counter[0]:18 Reciever/Unit2/frame_counter[0]:17 2.666071
13 Reciever/Unit2/frame_counter[0]:16 Reciever/Unit2/frame_counter[0]:15 0.2325
14 Reciever/Unit2/frame_counter[0]:17 Reciever/Unit2/frame_counter[0]:16 0.5
15 Reciever/Unit2/frame_counter[0]:15 Reciever\/Unit2\/U91:A1 1
16 Reciever/Unit2/frame_counter[0]:21 Reciever/Unit2/frame_counter[0]:20 1.085714
17 Reciever/Unit2/frame_counter[0]:21 Reciever/Unit2/frame_counter[0]:14 0.2714286
18 Reciever/Unit2/frame_counter[0]:22 Reciever/Unit2/frame_counter[0]:21 0.5
19 Reciever/Unit2/frame_counter[0]:27 Reciever/Unit2/frame_counter[0]:26 0.5
20 Reciever/Unit2/frame_counter[0]:26 Reciever/Unit2/frame_counter[0]:25 1.333036
21 Reciever/Unit2/frame_counter[0]:26 Reciever/Unit2/frame_counter[0]:22 2.690179
22 Reciever/Unit2/frame_counter[0]:28 Reciever/Unit2/frame_counter[0]:27 3.208929
23 Reciever/Unit2/frame_counter[0]:24 Reciever/Unit2/frame_counter[0]:23 1.580357
24 Reciever/Unit2/frame_counter[0]:25 Reciever/Unit2/frame_counter[0]:24 0.5
25 Reciever/Unit2/frame_counter[0]:23 Reciever\/Unit2\/U22:A2 1
26 Reciever/Unit2/frame_counter[0]:14 Reciever/Unit2/frame_counter[0]:13 7.600001
27 Reciever/Unit2/frame_counter[0]:13 Reciever/Unit2/frame_counter[0]:12 0.2714286

*END

*D_NET Reciever/Unit3/n3 4.366395 //LENGTH 51.001 LUMPCC 0 DR

*CONN
*I Reciever\/Unit3\/U3:Y O *L 0 *C 25.228 12.612
*I Reciever\/Unit3\/U5:A2 I *L 0.680145 *C 24.620 16.032
*I Reciever\/Unit3\/HFSINV_68_1:A I *L 0.577904 *C 23.252 14.588
*I Reciever\/Unit3\/U12:A2 I *L 0.680145 *C 18.388 16.032
*I Reciever\/Unit3\/U11:A2 I *L 0.680145 *C 14.892 17.932
*I Reciever\/Unit3\/U14:A2 I *L 0.680145 *C 13.524 17.932
*I Reciever\/Unit3\/U15:A2 I *L 0.680145 *C 7.900 17.932
*I Reciever\/Unit3\/U8:A2 I *L 0.680145 *C 5.164 17.932
*I Reciever\/Unit3\/U10:A2 I *L 0.680145 *C 2.124 12.764
*I Reciever\/Unit3\/U9:A2 I *L 0.680145 *C 4.860 9.420
*I Reciever\/Unit3\/U7:A2 I *L 0.680145 *C 1.060 4.556
*I Reciever\/Unit3\/U13:A2 I *L 0.680145 *C 3.492 6.076
*N Reciever/Unit3/n3:12 *C 3.492 6.090
*N Reciever/Unit3/n3:13 *C 1.061 4.556
*N Reciever/Unit3/n3:14 *C 1.212 4.556
*N Reciever/Unit3/n3:15 *C 1.212 6.671
*N Reciever/Unit3/n3:16 *C 1.226 6.684
*N Reciever/Unit3/n3:17 *C 3.479 6.684
*N Reciever/Unit3/n3:18 *C 3.492 6.684
*N Reciever/Unit3/n3:19 *C 4.860 9.434
*N Reciever/Unit3/n3:20 *C 4.860 10.014
*N Reciever/Unit3/n3:21 *C 4.846 10.028
*N Reciever/Unit3/n3:22 *C 3.506 10.028
*N Reciever/Unit3/n3:23 *C 3.492 10.028
*N Reciever/Unit3/n3:24 *C 2.124 12.764
*N Reciever/Unit3/n3:25 *C 2.138 12.764
*N Reciever/Unit3/n3:26 *C 3.479 12.764
*N Reciever/Unit3/n3:27 *C 3.492 12.764
*N Reciever/Unit3/n3:28 *C 3.796 12.764
*N Reciever/Unit3/n3:29 *C 3.796 17.919
*N Reciever/Unit3/n3:30 *C 3.810 17.932
*N Reciever/Unit3/n3:31 *C 5.164 17.932
*N Reciever/Unit3/n3:32 *C 5.164 17.932
*N Reciever/Unit3/n3:33 *C 7.900 17.932
*N Reciever/Unit3/n3:34 *C 7.900 17.932
*N Reciever/Unit3/n3:35 *C 13.525 17.932
*N Reciever/Unit3/n3:36 *C 13.827 17.932
*N Reciever/Unit3/n3:37 *C 13.828 17.932
*N Reciever/Unit3/n3:38 *C 14.893 17.932
*N Reciever/Unit3/n3:39 *C 15.043 17.932
*N Reciever/Unit3/n3:40 *C 15.044 17.932
*N Reciever/Unit3/n3:41 *C 16.703 17.932
*N Reciever/Unit3/n3:42 *C 16.716 17.919
*N Reciever/Unit3/n3:43 *C 16.716 15.818
*N Reciever/Unit3/n3:44 *C 16.730 15.804
*N Reciever/Unit3/n3:45 *C 18.388 15.993
*N Reciever/Unit3/n3:46 *C 18.388 15.818
*N Reciever/Unit3/n3:47 *C 18.388 15.804
*N Reciever/Unit3/n3:48 *C 23.252 14.602
*N Reciever/Unit3/n3:49 *C 23.252 15.791
*N Reciever/Unit3/n3:50 *C 23.252 15.804
*N Reciever/Unit3/n3:51 *C 24.620 16.032
*N Reciever/Unit3/n3:52 *C 24.468 16.108
*N Reciever/Unit3/n3:53 *C 24.468 15.818
*N Reciever/Unit3/n3:54 *C 24.468 15.804
*N Reciever/Unit3/n3:55 *C 25.215 15.804
*N Reciever/Unit3/n3:56 *C 25.228 15.791
*N Reciever/Unit3/n3:57 *C 25.228 12.626

*CAP
0 Reciever\/Unit3\/U3:Y 0.001
1 Reciever\/Unit3\/U5:A2 0.001
2 Reciever\/Unit3\/HFSINV_68_1:A 0.001
3 Reciever\/Unit3\/U12:A2 0.001
4 Reciever\/Unit3\/U11:A2 0.001
5 Reciever\/Unit3\/U14:A2 0.001
6 Reciever\/Unit3\/U15:A2 0.001
7 Reciever\/Unit3\/U8:A2 0.001
8 Reciever\/Unit3\/U10:A2 0.001
9 Reciever\/Unit3\/U9:A2 0.001
10 Reciever\/Unit3\/U7:A2 0.001
11 Reciever\/Unit3\/U13:A2 0.001
12 Reciever/Unit3/n3:12 0.03062326
13 Reciever/Unit3/n3:13 0.003941276
14 Reciever/Unit3/n3:14 0.1397767
15 Reciever/Unit3/n3:15 0.1296583
16 Reciever/Unit3/n3:16 0.09129349
17 Reciever/Unit3/n3:17 0.09129349
18 Reciever/Unit3/n3:18 0.1730353
19 Reciever/Unit3/n3:19 0.03369667
20 Reciever/Unit3/n3:20 0.03512935
21 Reciever/Unit3/n3:21 0.0592625
22 Reciever/Unit3/n3:22 0.0592625
23 Reciever/Unit3/n3:23 0.2888861
24 Reciever/Unit3/n3:24 0.001
25 Reciever/Unit3/n3:25 0.05356914
26 Reciever/Unit3/n3:26 0.05356914
27 Reciever/Unit3/n3:27 0.1623881
28 Reciever/Unit3/n3:28 0.3640715
29 Reciever/Unit3/n3:29 0.3472179
30 Reciever/Unit3/n3:30 0.04669581
31 Reciever/Unit3/n3:31 0.001
32 Reciever/Unit3/n3:32 0.1512992
33 Reciever/Unit3/n3:33 0.001
34 Reciever/Unit3/n3:34 0.3236829
35 Reciever/Unit3/n3:35 0.01253406
36 Reciever/Unit3/n3:36 0.01396673
37 Reciever/Unit3/n3:37 0.2622231
38 Reciever/Unit3/n3:38 0.004658405
39 Reciever/Unit3/n3:39 0.006091083
40 Reciever/Unit3/n3:40 0.1104832
41 Reciever/Unit3/n3:41 0.06734008
42 Reciever/Unit3/n3:42 0.07276264
43 Reciever/Unit3/n3:43 0.07276264
44 Reciever/Unit3/n3:44 0.06440137
45 Reciever/Unit3/n3:45 0.01232912
46 Reciever/Unit3/n3:46 0.01576839
47 Reciever/Unit3/n3:47 0.2377262
48 Reciever/Unit3/n3:48 0.04808554
49 Reciever/Unit3/n3:49 0.04951822
50 Reciever/Unit3/n3:50 0.21453
51 Reciever/Unit3/n3:51 0.01937106
52 Reciever/Unit3/n3:52 0.03113343
53 Reciever/Unit3/n3:53 0.01731426
54 Reciever/Unit3/n3:54 0.07159161
55 Reciever/Unit3/n3:55 0.02801473
56 Reciever/Unit3/n3:56 0.1409344
57 Reciever/Unit3/n3:57 0.1395018

*RES
0 Reciever\/Unit3\/U3:Y Reciever/Unit3/n3:57 1
1 Reciever/Unit3/n3:56 Reciever/Unit3/n3:55 0.5
2 Reciever/Unit3/n3:55 Reciever/Unit3/n3:54 1.333036
3 Reciever/Unit3/n3:57 Reciever/Unit3/n3:56 5.651786
4 Reciever/Unit3/n3:53 Reciever/Unit3/n3:52 0.5187501
5 Reciever/Unit3/n3:54 Reciever/Unit3/n3:53 0.5
6 Reciever/Unit3/n3:54 Reciever/Unit3/n3:50 2.171429
7 Reciever/Unit3/n3:51 Reciever\/Unit3\/U5:A2 0.5
8 Reciever/Unit3/n3:49 Reciever/Unit3/n3:48 2.123214
9 Reciever/Unit3/n3:50 Reciever/Unit3/n3:49 0.5
10 Reciever/Unit3/n3:50 Reciever/Unit3/n3:47 8.685716
11 Reciever/Unit3/n3:48 Reciever\/Unit3\/HFSINV_68_1:A 1
12 Reciever/Unit3/n3:46 Reciever/Unit3/n3:45 0.3133928
13 Reciever/Unit3/n3:47 Reciever/Unit3/n3:46 0.5
14 Reciever/Unit3/n3:47 Reciever/Unit3/n3:44 2.961607
15 Reciever/Unit3/n3:45 Reciever\/Unit3\/U12:A2 0.5
16 Reciever/Unit3/n3:44 Reciever/Unit3/n3:43 0.5
17 Reciever/Unit3/n3:43 Reciever/Unit3/n3:42 3.751786
18 Reciever/Unit3/n3:41 Reciever/Unit3/n3:40 2.961607
19 Reciever/Unit3/n3:42 Reciever/Unit3/n3:41 0.5
20 Reciever/Unit3/n3:39 Reciever/Unit3/n3:38 0.2678572
21 Reciever/Unit3/n3:40 Reciever/Unit3/n3:39 0.5
22 Reciever/Unit3/n3:40 Reciever/Unit3/n3:37 2.171429
23 Reciever/Unit3/n3:38 Reciever\/Unit3\/U11:A2 1
24 Reciever/Unit3/n3:36 Reciever/Unit3/n3:35 0.5392857
25 Reciever/Unit3/n3:37 Reciever/Unit3/n3:36 0.5
26 Reciever/Unit3/n3:37 Reciever/Unit3/n3:34 10.58572
27 Reciever/Unit3/n3:35 Reciever\/Unit3\/U14:A2 1
28 Reciever/Unit3/n3:33 Reciever\/Unit3\/U15:A2 1
29 Reciever/Unit3/n3:34 Reciever/Unit3/n3:33 0.5
30 Reciever/Unit3/n3:34 Reciever/Unit3/n3:32 4.885715
31 Reciever/Unit3/n3:31 Reciever\/Unit3\/U8:A2 1
32 Reciever/Unit3/n3:32 Reciever/Unit3/n3:31 0.5
33 Reciever/Unit3/n3:32 Reciever/Unit3/n3:30 2.41875
34 Reciever/Unit3/n3:29 Reciever/Unit3/n3:28 9.204465
35 Reciever/Unit3/n3:30 Reciever/Unit3/n3:29 0.5
36 Reciever/Unit3/n3:23 Reciever/Unit3/n3:22 0.5
37 Reciever/Unit3/n3:23 Reciever/Unit3/n3:18 5.971428
38 Reciever/Unit3/n3:22 Reciever/Unit3/n3:21 2.394643
39 Reciever/Unit3/n3:20 Reciever/Unit3/n3:19 1.0375
40 Reciever/Unit3/n3:21 Reciever/Unit3/n3:20 0.5
41 Reciever/Unit3/n3:19 Reciever\/Unit3\/U9:A2 1
42 Reciever/Unit3/n3:12 Reciever\/Unit3\/U13:A2 1
43 Reciever/Unit3/n3:27 Reciever/Unit3/n3:26 0.5
44 Reciever/Unit3/n3:27 Reciever/Unit3/n3:23 4.885715
45 Reciever/Unit3/n3:26 Reciever/Unit3/n3:25 2.394643
46 Reciever/Unit3/n3:24 Reciever\/Unit3\/U10:A2 1
47 Reciever/Unit3/n3:25 Reciever/Unit3/n3:24 0.5
48 Reciever/Unit3/n3:18 Reciever/Unit3/n3:17 0.5
49 Reciever/Unit3/n3:18 Reciever/Unit3/n3:12 1.061607
50 Reciever/Unit3/n3:17 Reciever/Unit3/n3:16 4.023215
51 Reciever/Unit3/n3:15 Reciever/Unit3/n3:14 3.775893
52 Reciever/Unit3/n3:16 Reciever/Unit3/n3:15 0.5
53 Reciever/Unit3/n3:13 Reciever\/Unit3\/U7:A2 1
54 Reciever/Unit3/n3:14 Reciever/Unit3/n3:13 0.2696429
55 Reciever/Unit3/n3:28 Reciever/Unit3/n3:27 0.5428572
56 Reciever/Unit3/n3:52 Reciever/Unit3/n3:51 0.2714286

*END

*D_NET Reciever/Unit3/n1 0.2165033 //LENGTH 2.590 LUMPCC 0 DR

*CONN
*I Reciever\/Unit3\/U4:Y O *L 0 *C 28.116 11.548
*I Reciever\/Unit3\/U17:A2 I *L 0.46235 *C 29.940 11.244
*N Reciever/Unit3/n1:2 *C 28.116 11.366
*N Reciever/Unit3/n1:3 *C 29.940 11.258
*N Reciever/Unit3/n1:4 *C 29.940 11.535
*N Reciever/Unit3/n1:5 *C 29.927 11.548
*N Reciever/Unit3/n1:6 *C 28.130 11.548
*N Reciever/Unit3/n1:7 *C 28.116 11.536

*CAP
0 Reciever\/Unit3\/U4:Y 0.001
1 Reciever\/Unit3\/U17:A2 0.001
2 Reciever/Unit3/n1:2 0.01391787
3 Reciever/Unit3/n1:3 0.0178543
4 Reciever/Unit3/n1:4 0.01928698
5 Reciever/Unit3/n1:5 0.07782184
6 Reciever/Unit3/n1:6 0.07782184
7 Reciever/Unit3/n1:7 0.007800476

*RES
0 Reciever\/Unit3\/U4:Y Reciever/Unit3/n1:7 1
1 Reciever/Unit3/n1:3 Reciever\/Unit3\/U17:A2 1
2 Reciever/Unit3/n1:4 Reciever/Unit3/n1:3 0.4946429
3 Reciever/Unit3/n1:5 Reciever/Unit3/n1:4 0.5
4 Reciever/Unit3/n1:7 Reciever/Unit3/n1:6 0.5
5 Reciever/Unit3/n1:7 Reciever/Unit3/n1:2 0.2825
6 Reciever/Unit3/n1:6 Reciever/Unit3/n1:5 3.208929

*END

*D_NET Reciever/Unit3/HFSNET_0 0.1273956 //LENGTH 1.661 LUMPCC 0 DR

*CONN
*I Reciever\/Unit3\/HFSINV_68_1:Y O *L 0 *C 23.100 14.892
*I Reciever\/Unit3\/U6:A2 I *L 0.529633 *C 21.884 14.588
*N Reciever/Unit3/HFSNET_0:2 *C 21.884 14.602
*N Reciever/Unit3/HFSNET_0:3 *C 21.884 14.892
*N Reciever/Unit3/HFSNET_0:4 *C 23.099 14.892

*CAP
0 Reciever\/Unit3\/HFSINV_68_1:Y 0.001
1 Reciever\/Unit3\/U6:A2 0.001
2 Reciever/Unit3/HFSNET_0:2 0.01321479
3 Reciever/Unit3/HFSNET_0:3 0.06647283
4 Reciever/Unit3/HFSNET_0:4 0.04570797

*RES
0 Reciever\/Unit3\/HFSINV_68_1:Y Reciever/Unit3/HFSNET_0:4 1
1 Reciever/Unit3/HFSNET_0:2 Reciever\/Unit3\/U6:A2 1
2 Reciever/Unit3/HFSNET_0:4 Reciever/Unit3/HFSNET_0:3 2.169643
3 Reciever/Unit3/HFSNET_0:3 Reciever/Unit3/HFSNET_0:2 0.51875

*END

*D_NET Reciever/Unit4/n3 0.5571954 //LENGTH 6.786 LUMPCC 0 DR

*CONN
*I Reciever\/Unit4\/U16:Y O *L 0 *C 28.724 11.852
*I Reciever\/Unit4\/U3:A I *L 0.577904 *C 26.292 14.588
*I Reciever\/Unit4\/U8:A2 I *L 0.684351 *C 26.569 15.956
*N Reciever/Unit4/n3:3 *C 26.596 15.917
*N Reciever/Unit4/n3:4 *C 26.293 14.588
*N Reciever/Unit4/n3:5 *C 26.596 14.588
*N Reciever/Unit4/n3:6 *C 26.596 11.852
*N Reciever/Unit4/n3:7 *C 28.723 11.852

*CAP
0 Reciever\/Unit4\/U16:Y 0.001
1 Reciever\/Unit4\/U3:A 0.001
2 Reciever\/Unit4\/U8:A2 0.001
3 Reciever/Unit4/n3:3 0.055558
4 Reciever/Unit4/n3:4 0.009954865
5 Reciever/Unit4/n3:5 0.1918053
6 Reciever/Unit4/n3:6 0.2082682
7 Reciever/Unit4/n3:7 0.08860904

*RES
0 Reciever\/Unit4\/U16:Y Reciever/Unit4/n3:7 1
1 Reciever/Unit4/n3:7 Reciever/Unit4/n3:6 3.798214
2 Reciever/Unit4/n3:3 Reciever\/Unit4\/U8:A2 0.5
3 Reciever/Unit4/n3:4 Reciever\/Unit4\/U3:A 1
4 Reciever/Unit4/n3:5 Reciever/Unit4/n3:4 0.5410715
5 Reciever/Unit4/n3:5 Reciever/Unit4/n3:3 2.373215
6 Reciever/Unit4/n3:6 Reciever/Unit4/n3:5 4.885715

*END

*D_NET Reciever/Unit4/n4 1.712999 //LENGTH 21.007 LUMPCC 0 DR

*CONN
*I Reciever\/Unit4\/U11:Y O *L 0 *C 6.988 19.604
*I Reciever\/Unit4\/U10:A2 I *L 0.549327 *C 25.988 17.932
*N Reciever/Unit4/n4:2 *C 25.988 17.945
*N Reciever/Unit4/n4:3 *C 25.988 19.439
*N Reciever/Unit4/n4:4 *C 25.975 19.452
*N Reciever/Unit4/n4:5 *C 7.002 19.452
*N Reciever/Unit4/n4:6 *C 6.988 19.452
*N Reciever/Unit4/n4:7 *C 6.988 19.591

*CAP
0 Reciever\/Unit4\/U11:Y 0.001
1 Reciever\/Unit4\/U10:A2 0.001
2 Reciever/Unit4/n4:2 0.06468131
3 Reciever/Unit4/n4:3 0.06611399
4 Reciever/Unit4/n4:4 0.780922
5 Reciever/Unit4/n4:5 0.780922
6 Reciever/Unit4/n4:6 0.009896035
7 Reciever/Unit4/n4:7 0.008463357

*RES
0 Reciever\/Unit4\/U11:Y Reciever/Unit4/n4:7 1
1 Reciever/Unit4/n4:2 Reciever\/Unit4\/U10:A2 1
2 Reciever/Unit4/n4:3 Reciever/Unit4/n4:2 2.666071
3 Reciever/Unit4/n4:4 Reciever/Unit4/n4:3 0.5
4 Reciever/Unit4/n4:6 Reciever/Unit4/n4:5 0.5
5 Reciever/Unit4/n4:5 Reciever/Unit4/n4:4 33.88036
6 Reciever/Unit4/n4:7 Reciever/Unit4/n4:6 0.2325

*END

*D_NET Reciever/Unit4/n5 0.5002726 //LENGTH 5.802 LUMPCC 0 DR

*CONN
*I Reciever\/Unit4\/U13:Y O *L 0 *C 1.668 20.516
*I Reciever\/Unit4\/U11:A1 I *L 0.534923 *C 6.076 19.452
*N Reciever/Unit4/n5:2 *C 6.076 19.466
*N Reciever/Unit4/n5:3 *C 6.076 20.047
*N Reciever/Unit4/n5:4 *C 6.062 20.060
*N Reciever/Unit4/n5:5 *C 1.681 20.060
*N Reciever/Unit4/n5:6 *C 1.668 20.073
*N Reciever/Unit4/n5:7 *C 1.668 20.503

*CAP
0 Reciever\/Unit4\/U13:Y 0.001
1 Reciever\/Unit4\/U11:A1 0.001
2 Reciever/Unit4/n5:2 0.03233605
3 Reciever/Unit4/n5:3 0.03376873
4 Reciever/Unit4/n5:4 0.1906408
5 Reciever/Unit4/n5:5 0.1906408
6 Reciever/Unit4/n5:6 0.02543156
7 Reciever/Unit4/n5:7 0.02545453

*RES
0 Reciever\/Unit4\/U13:Y Reciever/Unit4/n5:7 1
1 Reciever/Unit4/n5:2 Reciever\/Unit4\/U11:A1 1
2 Reciever/Unit4/n5:3 Reciever/Unit4/n5:2 1.0375
3 Reciever/Unit4/n5:4 Reciever/Unit4/n5:3 0.5
4 Reciever/Unit4/n5:6 Reciever/Unit4/n5:5 0.5
5 Reciever/Unit4/n5:5 Reciever/Unit4/n5:4 7.823215
6 Reciever/Unit4/n5:7 Reciever/Unit4/n5:6 0.7660714

*END

*D_NET Reciever/Unit4/n6 0.4055992 //LENGTH 4.723 LUMPCC 0 DR

*CONN
*I Reciever\/Unit4\/U12:Y O *L 0 *C 1.820 19.604
*I Reciever\/Unit4\/U11:A2 I *L 0.489968 *C 5.924 19.756
*N Reciever/Unit4/n6:2 *C 5.924 19.574
*N Reciever/Unit4/n6:3 *C 5.924 19.744
*N Reciever/Unit4/n6:4 *C 5.910 19.756
*N Reciever/Unit4/n6:5 *C 1.834 19.756
*N Reciever/Unit4/n6:6 *C 1.820 19.744
*N Reciever/Unit4/n6:7 *C 1.820 19.604

*CAP
0 Reciever\/Unit4\/U12:Y 0.001
1 Reciever\/Unit4\/U11:A2 0.001
2 Reciever/Unit4/n6:2 0.01898903
3 Reciever/Unit4/n6:3 0.01281191
4 Reciever/Unit4/n6:4 0.175081
5 Reciever/Unit4/n6:5 0.175081
6 Reciever/Unit4/n6:6 0.01153448
7 Reciever/Unit4/n6:7 0.0101018

*RES
0 Reciever\/Unit4\/U12:Y Reciever/Unit4/n6:7 1
1 Reciever/Unit4/n6:3 Reciever\/Unit4\/U11:A2 1
2 Reciever/Unit4/n6:3 Reciever/Unit4/n6:2 0.2825
3 Reciever/Unit4/n6:4 Reciever/Unit4/n6:3 0.5
4 Reciever/Unit4/n6:6 Reciever/Unit4/n6:5 0.5
5 Reciever/Unit4/n6:5 Reciever/Unit4/n6:4 7.280358
6 Reciever/Unit4/n6:7 Reciever/Unit4/n6:6 0.2325

*END

*D_NET Reciever/Unit4/n7 0.3562386 //LENGTH 3.764 LUMPCC 0 DR

*CONN
*I Reciever\/Unit4\/U4:Y O *L 0 *C 2.261 19.470
*I Reciever\/Unit4\/U12:A1 I *L 0.534923 *C 0.908 19.452
*I Reciever\/Unit4\/U13:A1 I *L 0.484266 *C 0.908 21.276
*N Reciever/Unit4/n7:3 *C 2.276 19.270
*N Reciever/Unit4/n7:4 *C 0.908 21.262
*N Reciever/Unit4/n7:5 *C 0.908 19.466
*N Reciever/Unit4/n7:6 *C 0.922 19.452
*N Reciever/Unit4/n7:7 *C 2.263 19.452
*N Reciever/Unit4/n7:8 *C 2.276 19.440
*N Reciever/Unit4/n7:9 *C 2.276 19.452

*CAP
0 Reciever\/Unit4\/U4:Y 0.01016826
1 Reciever\/Unit4\/U12:A1 0.001
2 Reciever\/Unit4\/U13:A1 0.001
3 Reciever/Unit4/n7:3 0.0111034
4 Reciever/Unit4/n7:4 0.1101288
5 Reciever/Unit4/n7:5 0.1077565
6 Reciever/Unit4/n7:6 0.05016647
7 Reciever/Unit4/n7:7 0.05016647
8 Reciever/Unit4/n7:8 0.006655782
9 Reciever/Unit4/n7:9 0.008092863

*RES
0 Reciever\/Unit4\/U4:Y Reciever/Unit4/n7:9 0.09166668
1 Reciever/Unit4/n7:4 Reciever\/Unit4\/U13:A1 1
2 Reciever/Unit4/n7:5 Reciever\/Unit4\/U12:A1 1
3 Reciever/Unit4/n7:5 Reciever/Unit4/n7:4 3.208929
4 Reciever/Unit4/n7:6 Reciever/Unit4/n7:5 0.5
5 Reciever/Unit4/n7:8 Reciever/Unit4/n7:7 0.5
6 Reciever/Unit4/n7:8 Reciever/Unit4/n7:3 0.2825
7 Reciever/Unit4/n7:7 Reciever/Unit4/n7:6 2.394643
8 Reciever/Unit4/n7:9 Reciever/Unit4/n7:8 1

*END

*D_NET Reciever/Unit4/n8_CDR1 0.5905325 //LENGTH 6.410 LUMPCC 0 DR

*CONN
*I Reciever\/Unit4\/U15:Y O *L 0 *C 7.444 21.580
*I Reciever\/Unit4\/U4:A1 I *L 0.954271 *C 3.644 19.300
*N Reciever/Unit4/n8_CDR1:2 *C 3.644 19.314
*N Reciever/Unit4/n8_CDR1:3 *C 3.644 20.959
*N Reciever/Unit4/n8_CDR1:4 *C 3.658 20.972
*N Reciever/Unit4/n8_CDR1:5 *C 7.431 20.972
*N Reciever/Unit4/n8_CDR1:6 *C 7.444 20.986
*N Reciever/Unit4/n8_CDR1:7 *C 7.444 21.567

*CAP
0 Reciever\/Unit4\/U15:Y 0.001
1 Reciever\/Unit4\/U4:A1 0.001
2 Reciever/Unit4/n8_CDR1:2 0.0833688
3 Reciever/Unit4/n8_CDR1:3 0.08480148
4 Reciever/Unit4/n8_CDR1:4 0.1831512
5 Reciever/Unit4/n8_CDR1:5 0.1831512
6 Reciever/Unit4/n8_CDR1:6 0.02774619
7 Reciever/Unit4/n8_CDR1:7 0.02631351

*RES
0 Reciever\/Unit4\/U15:Y Reciever/Unit4/n8_CDR1:7 1
1 Reciever/Unit4/n8_CDR1:2 Reciever\/Unit4\/U4:A1 1
2 Reciever/Unit4/n8_CDR1:3 Reciever/Unit4/n8_CDR1:2 2.9375
3 Reciever/Unit4/n8_CDR1:4 Reciever/Unit4/n8_CDR1:3 0.5
4 Reciever/Unit4/n8_CDR1:6 Reciever/Unit4/n8_CDR1:5 0.5
5 Reciever/Unit4/n8_CDR1:5 Reciever/Unit4/n8_CDR1:4 6.7375
6 Reciever/Unit4/n8_CDR1:7 Reciever/Unit4/n8_CDR1:6 1.0375

*END

*D_NET Reciever/Unit4/n9_CDR1 0.9897782 //LENGTH 8.278 LUMPCC 0 DR

*CONN
*I Reciever\/Unit4\/U14:Y O *L 0 *C 3.796 11.548
*I Reciever\/Unit4\/U4:A2 I *L 1.005399 *C 3.948 19.452
*N Reciever/Unit4/n9_CDR1:2 *C 3.948 19.439
*N Reciever/Unit4/n9_CDR1:3 *C 3.948 12.156
*N Reciever/Unit4/n9_CDR1:4 *C 3.796 12.156
*N Reciever/Unit4/n9_CDR1:5 *C 3.796 11.562

*CAP
0 Reciever\/Unit4\/U14:Y 0.001
1 Reciever\/Unit4\/U4:A2 0.001
2 Reciever/Unit4/n9_CDR1:2 0.44523
3 Reciever/Unit4/n9_CDR1:3 0.4573716
4 Reciever/Unit4/n9_CDR1:4 0.04865916
5 Reciever/Unit4/n9_CDR1:5 0.03651756

*RES
0 Reciever\/Unit4\/U14:Y Reciever/Unit4/n9_CDR1:5 1
1 Reciever/Unit4/n9_CDR1:2 Reciever\/Unit4\/U4:A2 1
2 Reciever/Unit4/n9_CDR1:5 Reciever/Unit4/n9_CDR1:4 1.061607
3 Reciever/Unit4/n9_CDR1:4 Reciever/Unit4/n9_CDR1:3 0.2714286
4 Reciever/Unit4/n9_CDR1:3 Reciever/Unit4/n9_CDR1:2 13.00447

*END

*D_NET Reciever/Unit4/n10_CDR1 0.4649747 //LENGTH 5.954 LUMPCC 0 DR

*CONN
*I Reciever\/Unit4\/U6:Y O *L 0 *C 2.732 6.228
*I Reciever\/Unit4\/U14:A3 I *L 1.259074 *C 3.188 11.396
*N Reciever/Unit4/n10_CDR1:2 *C 3.188 11.383
*N Reciever/Unit4/n10_CDR1:3 *C 3.188 10.954
*N Reciever/Unit4/n10_CDR1:4 *C 3.175 10.940
*N Reciever/Unit4/n10_CDR1:5 *C 2.746 10.940
*N Reciever/Unit4/n10_CDR1:6 *C 2.732 10.927
*N Reciever/Unit4/n10_CDR1:7 *C 2.732 6.242

*CAP
0 Reciever\/Unit4\/U6:Y 0.001
1 Reciever\/Unit4\/U14:A3 0.001
2 Reciever/Unit4/n10_CDR1:2 0.02323212
3 Reciever/Unit4/n10_CDR1:3 0.0246648
4 Reciever/Unit4/n10_CDR1:4 0.01655756
5 Reciever/Unit4/n10_CDR1:5 0.01655756
6 Reciever/Unit4/n10_CDR1:6 0.1916977
7 Reciever/Unit4/n10_CDR1:7 0.190265

*RES
0 Reciever\/Unit4\/U6:Y Reciever/Unit4/n10_CDR1:7 1
1 Reciever/Unit4/n10_CDR1:2 Reciever\/Unit4\/U14:A3 1
2 Reciever/Unit4/n10_CDR1:3 Reciever/Unit4/n10_CDR1:2 0.7660714
3 Reciever/Unit4/n10_CDR1:4 Reciever/Unit4/n10_CDR1:3 0.5
4 Reciever/Unit4/n10_CDR1:6 Reciever/Unit4/n10_CDR1:5 0.5
5 Reciever/Unit4/n10_CDR1:5 Reciever/Unit4/n10_CDR1:4 0.7660714
6 Reciever/Unit4/n10_CDR1:7 Reciever/Unit4/n10_CDR1:6 8.366072

*END

*D_NET Reciever/Unit4/n11_CDR1 0.946256 //LENGTH 11.274 LUMPCC 0 DR

*CONN
*I Reciever\/Unit4\/U5:Y O *L 0 *C 15.956 18.540
*I Reciever\/Unit4\/U15:A3 I *L 1.259074 *C 8.356 21.884
*N Reciever/Unit4/n11_CDR1:2 *C 8.356 21.870
*N Reciever/Unit4/n11_CDR1:3 *C 8.356 19.770
*N Reciever/Unit4/n11_CDR1:4 *C 8.370 19.756
*N Reciever/Unit4/n11_CDR1:5 *C 15.943 19.756
*N Reciever/Unit4/n11_CDR1:6 *C 15.956 19.742
*N Reciever/Unit4/n11_CDR1:7 *C 15.956 18.553

*CAP
0 Reciever\/Unit4\/U5:Y 0.001
1 Reciever\/Unit4\/U15:A3 0.001
2 Reciever/Unit4/n11_CDR1:2 0.09061112
3 Reciever/Unit4/n11_CDR1:3 0.09138659
4 Reciever/Unit4/n11_CDR1:4 0.3225971
5 Reciever/Unit4/n11_CDR1:5 0.3225971
6 Reciever/Unit4/n11_CDR1:6 0.05835031
7 Reciever/Unit4/n11_CDR1:7 0.05871375

*RES
0 Reciever\/Unit4\/U5:Y Reciever/Unit4/n11_CDR1:7 1
1 Reciever/Unit4/n11_CDR1:2 Reciever\/Unit4\/U15:A3 1
2 Reciever/Unit4/n11_CDR1:3 Reciever/Unit4/n11_CDR1:2 3.751786
3 Reciever/Unit4/n11_CDR1:4 Reciever/Unit4/n11_CDR1:3 0.5
4 Reciever/Unit4/n11_CDR1:6 Reciever/Unit4/n11_CDR1:5 0.5
5 Reciever/Unit4/n11_CDR1:5 Reciever/Unit4/n11_CDR1:4 13.52322
6 Reciever/Unit4/n11_CDR1:7 Reciever/Unit4/n11_CDR1:6 2.123214

*END

*D_NET Reciever/Unit4/n1 0.5627884 //LENGTH 6.343 LUMPCC 0 DR

*CONN
*I Reciever\/Unit4\/U3:Y O *L 0 *C 26.140 15.029
*I Reciever\/Unit4\/U9:A2 I *L 0.529633 *C 24.924 14.588
*I Reciever\/Unit4\/U10:A1 I *L 0.572761 *C 26.292 17.932
*N Reciever/Unit4/n1:3 *C 26.292 17.919
*N Reciever/Unit4/n1:4 *C 26.292 16.260
*N Reciever/Unit4/n1:5 *C 24.924 14.602
*N Reciever/Unit4/n1:6 *C 24.924 16.260
*N Reciever/Unit4/n1:7 *C 26.140 16.260
*N Reciever/Unit4/n1:8 *C 26.140 15.058
*N Reciever/Unit4/n1:9 *C 26.140 15.044

*CAP
0 Reciever\/Unit4\/U3:Y 0.008085283
1 Reciever\/Unit4\/U9:A2 0.001
2 Reciever\/Unit4\/U10:A1 0.001
3 Reciever/Unit4/n1:3 0.06788587
4 Reciever/Unit4/n1:4 0.07849443
5 Reciever/Unit4/n1:5 0.08320308
6 Reciever/Unit4/n1:6 0.136999
7 Reciever/Unit4/n1:7 0.1194905
8 Reciever/Unit4/n1:8 0.06062044
9 Reciever/Unit4/n1:9 0.006009885

*RES
0 Reciever\/Unit4\/U3:Y Reciever/Unit4/n1:9 0.09166668
1 Reciever/Unit4/n1:3 Reciever\/Unit4\/U10:A1 1
2 Reciever/Unit4/n1:9 Reciever/Unit4/n1:8 1
3 Reciever/Unit4/n1:8 Reciever/Unit4/n1:7 2.147322
4 Reciever/Unit4/n1:5 Reciever\/Unit4\/U9:A2 1
5 Reciever/Unit4/n1:6 Reciever/Unit4/n1:5 2.961607
6 Reciever/Unit4/n1:7 Reciever/Unit4/n1:6 2.171429
7 Reciever/Unit4/n1:7 Reciever/Unit4/n1:4 0.2714286
8 Reciever/Unit4/n1:4 Reciever/Unit4/n1:3 2.961607

*END

*D_NET Reciever/Unit4/n2 0.5129681 //LENGTH 4.357 LUMPCC 0 DR

*CONN
*I Reciever\/Unit4\/U7:Y O *L 0 *C 0.908 18.084
*I Reciever\/Unit4\/U12:A2 I *L 0.489968 *C 0.756 19.756
*I Reciever\/Unit4\/U13:A3 I *L 0.623526 *C 1.364 21.428
*N Reciever/Unit4/n2:3 *C 1.363 21.428
*N Reciever/Unit4/n2:4 *C 0.756 21.428
*N Reciever/Unit4/n2:5 *C 0.756 19.756
*N Reciever/Unit4/n2:6 *C 0.756 18.236
*N Reciever/Unit4/n2:7 *C 0.908 18.236
*N Reciever/Unit4/n2:8 *C 0.908 18.098

*CAP
0 Reciever\/Unit4\/U7:Y 0.001
1 Reciever\/Unit4\/U12:A2 0.001
2 Reciever\/Unit4\/U13:A3 0.001
3 Reciever/Unit4/n2:3 0.02447419
4 Reciever/Unit4/n2:4 0.1538484
5 Reciever/Unit4/n2:5 0.2081385
6 Reciever/Unit4/n2:6 0.09409068
7 Reciever/Unit4/n2:7 0.02046883
8 Reciever/Unit4/n2:8 0.008947369

*RES
0 Reciever\/Unit4\/U7:Y Reciever/Unit4/n2:8 1
1 Reciever/Unit4/n2:3 Reciever\/Unit4\/U13:A3 1
2 Reciever/Unit4/n2:8 Reciever/Unit4/n2:7 0.2473214
3 Reciever/Unit4/n2:5 Reciever\/Unit4\/U12:A2 1
4 Reciever/Unit4/n2:5 Reciever/Unit4/n2:4 2.985714
5 Reciever/Unit4/n2:6 Reciever/Unit4/n2:5 2.714286
6 Reciever/Unit4/n2:4 Reciever/Unit4/n2:3 1.083929
7 Reciever/Unit4/n2:7 Reciever/Unit4/n2:6 0.2714286

*END

*D_NET Reciever/Unit2/HFSNET_1 4.784795 //LENGTH 57.930 LUMPCC 0 DR

*CONN
*I Reciever\/Unit2\/HFSBUF_884_3:Y O *L 0 *C 17.628 15.956
*I Reciever\/Unit2\/data_parll_reg[0]:CLK I *L 0.667702 *C 21.124 13.524
*I Reciever\/Unit2\/recieved_flag_reg:CLK I *L 0.667702 *C 23.860 10.484
*I Reciever\/Unit2\/stop_count_reg[3]:CLK I *L 0.667702 *C 27.508 10.180
*I Reciever\/Unit2\/next_state_reg[1]:CLK I *L 0.668019 *C 28.876 3.492
*I Reciever\/Unit2\/stop_count_reg[2]:CLK I *L 0.667702 *C 34.196 3.796
*I Reciever\/Unit2\/stop_count_reg[1]:CLK I *L 0.667702 *C 34.348 3.492
*I Reciever\/Unit2\/next_state_reg[0]:CLK I *L 0.668019 *C 21.580 0.452
*I Reciever\/Unit2\/frame_counter_reg[1]:CLK I *L 0.667702 *C 16.108 0.452
*I Reciever\/Unit2\/frame_counter_reg[2]:CLK I *L 0.667702 *C 12.004 0.452
*I Reciever\/Unit2\/frame_counter_reg[3]:CLK I *L 0.667702 *C 17.476 0.452
*I Reciever\/Unit2\/stop_count_reg[0]:CLK I *L 0.667702 *C 27.812 0.452
*I Reciever\/Unit2\/data_parll_reg[10]:CLK I *L 0.667702 *C 19.756 17.172
*N Reciever/Unit2/HFSNET_1:13 *C 19.756 17.159
*N Reciever/Unit2/HFSNET_1:14 *C 27.812 0.466
*N Reciever/Unit2/HFSNET_1:15 *C 17.476 0.465
*N Reciever/Unit2/HFSNET_1:16 *C 12.004 0.452
*N Reciever/Unit2/HFSNET_1:17 *C 12.004 0.592
*N Reciever/Unit2/HFSNET_1:18 *C 12.018 0.604
*N Reciever/Unit2/HFSNET_1:19 *C 16.108 0.452
*N Reciever/Unit2/HFSNET_1:20 *C 16.108 0.592
*N Reciever/Unit2/HFSNET_1:21 *C 16.108 0.604
*N Reciever/Unit2/HFSNET_1:22 *C 17.463 0.604
*N Reciever/Unit2/HFSNET_1:23 *C 17.477 0.604
*N Reciever/Unit2/HFSNET_1:24 *C 17.628 0.604
*N Reciever/Unit2/HFSNET_1:25 *C 17.628 1.820
*N Reciever/Unit2/HFSNET_1:26 *C 17.779 1.820
*N Reciever/Unit2/HFSNET_1:27 *C 17.794 1.820
*N Reciever/Unit2/HFSNET_1:28 *C 21.580 0.466
*N Reciever/Unit2/HFSNET_1:29 *C 21.580 1.806
*N Reciever/Unit2/HFSNET_1:30 *C 21.580 1.820
*N Reciever/Unit2/HFSNET_1:31 *C 27.799 1.820
*N Reciever/Unit2/HFSNET_1:32 *C 27.812 1.820
*N Reciever/Unit2/HFSNET_1:33 *C 34.348 3.479
*N Reciever/Unit2/HFSNET_1:34 *C 34.196 3.783
*N Reciever/Unit2/HFSNET_1:35 *C 34.196 3.340
*N Reciever/Unit2/HFSNET_1:36 *C 34.348 3.340
*N Reciever/Unit2/HFSNET_1:37 *C 34.348 3.050
*N Reciever/Unit2/HFSNET_1:38 *C 34.334 3.036
*N Reciever/Unit2/HFSNET_1:39 *C 28.876 3.479
*N Reciever/Unit2/HFSNET_1:40 *C 28.876 3.050
*N Reciever/Unit2/HFSNET_1:41 *C 28.876 3.036
*N Reciever/Unit2/HFSNET_1:42 *C 27.826 3.036
*N Reciever/Unit2/HFSNET_1:43 *C 27.812 3.036
*N Reciever/Unit2/HFSNET_1:44 *C 27.509 10.180
*N Reciever/Unit2/HFSNET_1:45 *C 27.812 10.180
*N Reciever/Unit2/HFSNET_1:46 *C 27.812 11.535
*N Reciever/Unit2/HFSNET_1:47 *C 27.799 11.548
*N Reciever/Unit2/HFSNET_1:48 *C 23.860 10.498
*N Reciever/Unit2/HFSNET_1:49 *C 23.860 11.535
*N Reciever/Unit2/HFSNET_1:50 *C 23.860 11.548
*N Reciever/Unit2/HFSNET_1:51 *C 21.137 11.548
*N Reciever/Unit2/HFSNET_1:52 *C 21.124 11.562
*N Reciever/Unit2/HFSNET_1:53 *C 21.124 13.371
*N Reciever/Unit2/HFSNET_1:54 *C 21.123 13.524
*N Reciever/Unit2/HFSNET_1:55 *C 21.124 13.511
*N Reciever/Unit2/HFSNET_1:56 *C 20.212 13.524
*N Reciever/Unit2/HFSNET_1:57 *C 20.212 14.740
*N Reciever/Unit2/HFSNET_1:58 *C 19.756 14.740
*N Reciever/Unit2/HFSNET_1:59 *C 19.756 16.412
*N Reciever/Unit2/HFSNET_1:60 *C 19.742 16.412
*N Reciever/Unit2/HFSNET_1:61 *C 17.642 16.412
*N Reciever/Unit2/HFSNET_1:62 *C 17.628 16.399
*N Reciever/Unit2/HFSNET_1:63 *C 17.628 15.970

*CAP
0 Reciever\/Unit2\/HFSBUF_884_3:Y 0.001
1 Reciever\/Unit2\/data_parll_reg[0]:CLK 0.001
2 Reciever\/Unit2\/recieved_flag_reg:CLK 0.001
3 Reciever\/Unit2\/stop_count_reg[3]:CLK 0.001
4 Reciever\/Unit2\/next_state_reg[1]:CLK 0.001
5 Reciever\/Unit2\/stop_count_reg[2]:CLK 0.001
6 Reciever\/Unit2\/stop_count_reg[1]:CLK 0.001
7 Reciever\/Unit2\/next_state_reg[0]:CLK 0.001
8 Reciever\/Unit2\/frame_counter_reg[1]:CLK 0.001
9 Reciever\/Unit2\/frame_counter_reg[2]:CLK 0.001
10 Reciever\/Unit2\/frame_counter_reg[3]:CLK 0.001
11 Reciever\/Unit2\/stop_count_reg[0]:CLK 0.001
12 Reciever\/Unit2\/data_parll_reg[10]:CLK 0.001
13 Reciever/Unit2/HFSNET_1:13 0.04385996
14 Reciever/Unit2/HFSNET_1:14 0.05542302
15 Reciever/Unit2/HFSNET_1:15 0.01170705
16 Reciever/Unit2/HFSNET_1:16 0.007386854
17 Reciever/Unit2/HFSNET_1:17 0.008819532
18 Reciever/Unit2/HFSNET_1:18 0.1302027
19 Reciever/Unit2/HFSNET_1:19 0.007586095
20 Reciever/Unit2/HFSNET_1:20 0.009018773
21 Reciever/Unit2/HFSNET_1:21 0.1772823
22 Reciever/Unit2/HFSNET_1:22 0.04470737
23 Reciever/Unit2/HFSNET_1:23 0.02142887
24 Reciever/Unit2/HFSNET_1:24 0.06840764
25 Reciever/Unit2/HFSNET_1:25 0.06844386
26 Reciever/Unit2/HFSNET_1:26 0.005953141
27 Reciever/Unit2/HFSNET_1:27 0.1302723
28 Reciever/Unit2/HFSNET_1:28 0.05812619
29 Reciever/Unit2/HFSNET_1:29 0.05955886
30 Reciever/Unit2/HFSNET_1:30 0.3945282
31 Reciever/Unit2/HFSNET_1:31 0.2618836
32 Reciever/Unit2/HFSNET_1:32 0.1149828
33 Reciever/Unit2/HFSNET_1:33 0.006726778
34 Reciever/Unit2/HFSNET_1:34 0.02299248
35 Reciever/Unit2/HFSNET_1:35 0.03516094
36 Reciever/Unit2/HFSNET_1:36 0.03719769
37 Reciever/Unit2/HFSNET_1:37 0.01593023
38 Reciever/Unit2/HFSNET_1:38 0.2292671
39 Reciever/Unit2/HFSNET_1:39 0.02124101
40 Reciever/Unit2/HFSNET_1:40 0.02267369
41 Reciever/Unit2/HFSNET_1:41 0.2836675
42 Reciever/Unit2/HFSNET_1:42 0.05202816
43 Reciever/Unit2/HFSNET_1:43 0.3729317
44 Reciever/Unit2/HFSNET_1:44 0.01063025
45 Reciever/Unit2/HFSNET_1:45 0.3978426
46 Reciever/Unit2/HFSNET_1:46 0.06385835
47 Reciever/Unit2/HFSNET_1:47 0.1633228
48 Reciever/Unit2/HFSNET_1:48 0.04994396
49 Reciever/Unit2/HFSNET_1:49 0.05137664
50 Reciever/Unit2/HFSNET_1:50 0.2766865
51 Reciever/Unit2/HFSNET_1:51 0.1109915
52 Reciever/Unit2/HFSNET_1:52 0.08022934
53 Reciever/Unit2/HFSNET_1:53 0.0899937
54 Reciever/Unit2/HFSNET_1:54 0.00362716
55 Reciever/Unit2/HFSNET_1:55 0.04821329
56 Reciever/Unit2/HFSNET_1:56 0.1036708
57 Reciever/Unit2/HFSNET_1:57 0.08484888
58 Reciever/Unit2/HFSNET_1:58 0.1188611
59 Reciever/Unit2/HFSNET_1:59 0.1419767
60 Reciever/Unit2/HFSNET_1:60 0.07747499
61 Reciever/Unit2/HFSNET_1:61 0.07747499
62 Reciever/Unit2/HFSNET_1:62 0.02140406
63 Reciever/Unit2/HFSNET_1:63 0.01997138

*RES
0 Reciever\/Unit2\/HFSBUF_884_3:Y Reciever/Unit2/HFSNET_1:63 1
1 Reciever/Unit2/HFSNET_1:33 Reciever\/Unit2\/stop_count_reg[1]:CLK 1
2 Reciever/Unit2/HFSNET_1:34 Reciever\/Unit2\/stop_count_reg[2]:CLK 1
3 Reciever/Unit2/HFSNET_1:37 Reciever/Unit2/HFSNET_1:36 0.5187501
4 Reciever/Unit2/HFSNET_1:38 Reciever/Unit2/HFSNET_1:37 0.5
5 Reciever/Unit2/HFSNET_1:40 Reciever/Unit2/HFSNET_1:39 0.7660714
6 Reciever/Unit2/HFSNET_1:41 Reciever/Unit2/HFSNET_1:40 0.5
7 Reciever/Unit2/HFSNET_1:41 Reciever/Unit2/HFSNET_1:38 9.747323
8 Reciever/Unit2/HFSNET_1:39 Reciever\/Unit2\/next_state_reg[1]:CLK 1
9 Reciever/Unit2/HFSNET_1:43 Reciever/Unit2/HFSNET_1:42 0.5
10 Reciever/Unit2/HFSNET_1:43 Reciever/Unit2/HFSNET_1:32 2.171429
11 Reciever/Unit2/HFSNET_1:42 Reciever/Unit2/HFSNET_1:41 1.875893
12 Reciever/Unit2/HFSNET_1:14 Reciever\/Unit2\/stop_count_reg[0]:CLK 1
13 Reciever/Unit2/HFSNET_1:44 Reciever\/Unit2\/stop_count_reg[3]:CLK 1
14 Reciever/Unit2/HFSNET_1:46 Reciever/Unit2/HFSNET_1:45 2.41875
15 Reciever/Unit2/HFSNET_1:47 Reciever/Unit2/HFSNET_1:46 0.5
16 Reciever/Unit2/HFSNET_1:49 Reciever/Unit2/HFSNET_1:48 1.851786
17 Reciever/Unit2/HFSNET_1:50 Reciever/Unit2/HFSNET_1:49 0.5
18 Reciever/Unit2/HFSNET_1:50 Reciever/Unit2/HFSNET_1:47 7.033036
19 Reciever/Unit2/HFSNET_1:48 Reciever\/Unit2\/recieved_flag_reg:CLK 1
20 Reciever/Unit2/HFSNET_1:32 Reciever/Unit2/HFSNET_1:31 0.5
21 Reciever/Unit2/HFSNET_1:32 Reciever/Unit2/HFSNET_1:14 2.41875
22 Reciever/Unit2/HFSNET_1:31 Reciever/Unit2/HFSNET_1:30 11.10447
23 Reciever/Unit2/HFSNET_1:29 Reciever/Unit2/HFSNET_1:28 2.394643
24 Reciever/Unit2/HFSNET_1:30 Reciever/Unit2/HFSNET_1:29 0.5
25 Reciever/Unit2/HFSNET_1:30 Reciever/Unit2/HFSNET_1:27 6.761608
26 Reciever/Unit2/HFSNET_1:28 Reciever\/Unit2\/next_state_reg[0]:CLK 1
27 Reciever/Unit2/HFSNET_1:55 Reciever\/Unit2\/data_parll_reg[0]:CLK 1
28 Reciever/Unit2/HFSNET_1:55 Reciever/Unit2/HFSNET_1:54 0.01
29 Reciever/Unit2/HFSNET_1:55 Reciever/Unit2/HFSNET_1:53 0.2341667
30 Reciever/Unit2/HFSNET_1:52 Reciever/Unit2/HFSNET_1:51 0.5
31 Reciever/Unit2/HFSNET_1:51 Reciever/Unit2/HFSNET_1:50 4.861607
32 Reciever/Unit2/HFSNET_1:13 Reciever\/Unit2\/data_parll_reg[10]:CLK 1
33 Reciever/Unit2/HFSNET_1:59 Reciever/Unit2/HFSNET_1:58 2.985714
34 Reciever/Unit2/HFSNET_1:59 Reciever/Unit2/HFSNET_1:13 1.333036
35 Reciever/Unit2/HFSNET_1:60 Reciever/Unit2/HFSNET_1:59 0.5
36 Reciever/Unit2/HFSNET_1:62 Reciever/Unit2/HFSNET_1:61 0.5
37 Reciever/Unit2/HFSNET_1:61 Reciever/Unit2/HFSNET_1:60 3.751786
38 Reciever/Unit2/HFSNET_1:63 Reciever/Unit2/HFSNET_1:62 0.7660714
39 Reciever/Unit2/HFSNET_1:26 Reciever/Unit2/HFSNET_1:25 0.2696429
40 Reciever/Unit2/HFSNET_1:27 Reciever/Unit2/HFSNET_1:26 0.5
41 Reciever/Unit2/HFSNET_1:15 Reciever\/Unit2\/frame_counter_reg[3]:CLK 1
42 Reciever/Unit2/HFSNET_1:23 Reciever/Unit2/HFSNET_1:22 0.5
43 Reciever/Unit2/HFSNET_1:23 Reciever/Unit2/HFSNET_1:15 0.2325
44 Reciever/Unit2/HFSNET_1:22 Reciever/Unit2/HFSNET_1:21 2.41875
45 Reciever/Unit2/HFSNET_1:20 Reciever/Unit2/HFSNET_1:19 0.2325
46 Reciever/Unit2/HFSNET_1:21 Reciever/Unit2/HFSNET_1:20 0.5
47 Reciever/Unit2/HFSNET_1:21 Reciever/Unit2/HFSNET_1:18 7.304465
48 Reciever/Unit2/HFSNET_1:19 Reciever\/Unit2\/frame_counter_reg[1]:CLK 1
49 Reciever/Unit2/HFSNET_1:17 Reciever/Unit2/HFSNET_1:16 0.2325
50 Reciever/Unit2/HFSNET_1:18 Reciever/Unit2/HFSNET_1:17 0.5
51 Reciever/Unit2/HFSNET_1:16 Reciever\/Unit2\/frame_counter_reg[2]:CLK 1
52 Reciever/Unit2/HFSNET_1:24 Reciever/Unit2/HFSNET_1:23 0.2696429
53 Reciever/Unit2/HFSNET_1:25 Reciever/Unit2/HFSNET_1:24 2.171428
54 Reciever/Unit2/HFSNET_1:58 Reciever/Unit2/HFSNET_1:57 0.8142858
55 Reciever/Unit2/HFSNET_1:57 Reciever/Unit2/HFSNET_1:56 2.171429
56 Reciever/Unit2/HFSNET_1:56 Reciever/Unit2/HFSNET_1:55 1.628572
57 Reciever/Unit2/HFSNET_1:53 Reciever/Unit2/HFSNET_1:52 3.231251
58 Reciever/Unit2/HFSNET_1:45 Reciever/Unit2/HFSNET_1:44 0.5410715
59 Reciever/Unit2/HFSNET_1:45 Reciever/Unit2/HFSNET_1:43 12.75714
60 Reciever/Unit2/HFSNET_1:35 Reciever/Unit2/HFSNET_1:34 0.7901787
61 Reciever/Unit2/HFSNET_1:36 Reciever/Unit2/HFSNET_1:35 0.2714286
62 Reciever/Unit2/HFSNET_1:36 Reciever/Unit2/HFSNET_1:33 0.2473214

*END

*D_NET Reciever/Unit1/tmp_net1 0.2686636 //LENGTH 2.238 LUMPCC 0 DR

*CONN
*I Reciever\/Unit1\/ctmTdsLR_2_287:Y O *L 0 *C 14.132 32.676
*I Reciever\/Unit1\/ctmTdsLR_3_288:A2 I *L 0.47692 *C 14.132 30.548
*N Reciever/Unit1/tmp_net1:2 *C 14.132 30.562
*N Reciever/Unit1/tmp_net1:3 *C 14.132 32.663

*CAP
0 Reciever\/Unit1\/ctmTdsLR_2_287:Y 0.001
1 Reciever\/Unit1\/ctmTdsLR_3_288:A2 0.001
2 Reciever/Unit1/tmp_net1:2 0.1333318
3 Reciever/Unit1/tmp_net1:3 0.1333318

*RES
0 Reciever\/Unit1\/ctmTdsLR_2_287:Y Reciever/Unit1/tmp_net1:3 1
1 Reciever/Unit1/tmp_net1:2 Reciever\/Unit1\/ctmTdsLR_3_288:A2 1
2 Reciever/Unit1/tmp_net1:3 Reciever/Unit1/tmp_net1:2 3.751786

*END

*D_NET Reciever/Unit1/tmp_net2_CDR1 0.2521121 //LENGTH 2.822 LUMPCC 0 DR

*CONN
*I Reciever\/Unit1\/ctmTdsLR_3_288:Y O *L 0 *C 12.938 31.532
*I Reciever\/Unit1\/ctmTdsLR_5_290:A1 I *L 0.508972 *C 11.244 31.004
*N Reciever/Unit1/tmp_net2_CDR1:2 *C 12.916 31.607
*N Reciever/Unit1/tmp_net2_CDR1:3 *C 11.244 30.822
*N Reciever/Unit1/tmp_net2_CDR1:4 *C 11.244 30.992
*N Reciever/Unit1/tmp_net2_CDR1:5 *C 11.258 31.004
*N Reciever/Unit1/tmp_net2_CDR1:6 *C 12.902 31.004
*N Reciever/Unit1/tmp_net2_CDR1:7 *C 12.916 31.018
*N Reciever/Unit1/tmp_net2_CDR1:8 *C 12.916 31.447
*N Reciever/Unit1/tmp_net2_CDR1:9 *C 12.937 31.532

*CAP
0 Reciever\/Unit1\/ctmTdsLR_3_288:Y 0.001
1 Reciever\/Unit1\/ctmTdsLR_5_290:A1 0.001
2 Reciever/Unit1/tmp_net2_CDR1:2 0.01845486
3 Reciever/Unit1/tmp_net2_CDR1:3 0.0146912
4 Reciever/Unit1/tmp_net2_CDR1:4 0.00851408
5 Reciever/Unit1/tmp_net2_CDR1:5 0.07278801
6 Reciever/Unit1/tmp_net2_CDR1:6 0.07278801
7 Reciever/Unit1/tmp_net2_CDR1:7 0.02482933
8 Reciever/Unit1/tmp_net2_CDR1:8 0.02339665
9 Reciever/Unit1/tmp_net2_CDR1:9 0.01464997

*RES
0 Reciever\/Unit1\/ctmTdsLR_3_288:Y Reciever/Unit1/tmp_net2_CDR1:9 0.01
1 Reciever/Unit1/tmp_net2_CDR1:4 Reciever\/Unit1\/ctmTdsLR_5_290:A1 1
2 Reciever/Unit1/tmp_net2_CDR1:4 Reciever/Unit1/tmp_net2_CDR1:3 0.2825
3 Reciever/Unit1/tmp_net2_CDR1:5 Reciever/Unit1/tmp_net2_CDR1:4 0.5
4 Reciever/Unit1/tmp_net2_CDR1:7 Reciever/Unit1/tmp_net2_CDR1:6 0.5
5 Reciever/Unit1/tmp_net2_CDR1:6 Reciever/Unit1/tmp_net2_CDR1:5 2.9375
6 Reciever/Unit1/tmp_net2_CDR1:8 Reciever/Unit1/tmp_net2_CDR1:7 0.7660714
7 Reciever/Unit1/tmp_net2_CDR1:9 Reciever/Unit1/tmp_net2_CDR1:8 1
8 Reciever/Unit1/tmp_net2_CDR1:9 Reciever/Unit1/tmp_net2_CDR1:2 0.06845455

*END

*D_NET Reciever/Unit1/tmp_net3 0.2873577 //LENGTH 3.308 LUMPCC 0 DR

*CONN
*I Reciever\/Unit1\/ctmTdsLR_4_289:Y O *L 0 *C 10.071 32.816
*I Reciever\/Unit1\/ctmTdsLR_5_290:A3 I *L 0.426515 *C 10.940 31.004
*N Reciever/Unit1/tmp_net3:2 *C 10.028 32.646
*N Reciever/Unit1/tmp_net3:3 *C 10.940 31.018
*N Reciever/Unit1/tmp_net3:4 *C 10.940 32.815
*N Reciever/Unit1/tmp_net3:5 *C 10.927 32.828
*N Reciever/Unit1/tmp_net3:6 *C 10.042 32.828
*N Reciever/Unit1/tmp_net3:7 *C 10.028 32.816
*N Reciever/Unit1/tmp_net3:8 *C 10.028 32.828

*CAP
0 Reciever\/Unit1\/ctmTdsLR_4_289:Y 0.008200633
1 Reciever\/Unit1\/ctmTdsLR_5_290:A3 0.001
2 Reciever/Unit1/tmp_net3:2 0.01119302
3 Reciever/Unit1/tmp_net3:3 0.09655882
4 Reciever/Unit1/tmp_net3:4 0.0979915
5 Reciever/Unit1/tmp_net3:5 0.02977153
6 Reciever/Unit1/tmp_net3:6 0.02977153
7 Reciever/Unit1/tmp_net3:7 0.006745401
8 Reciever/Unit1/tmp_net3:8 0.006125235

*RES
0 Reciever\/Unit1\/ctmTdsLR_4_289:Y Reciever/Unit1/tmp_net3:8 0.09166668
1 Reciever/Unit1/tmp_net3:3 Reciever\/Unit1\/ctmTdsLR_5_290:A3 1
2 Reciever/Unit1/tmp_net3:4 Reciever/Unit1/tmp_net3:3 3.208928
3 Reciever/Unit1/tmp_net3:5 Reciever/Unit1/tmp_net3:4 0.5
4 Reciever/Unit1/tmp_net3:7 Reciever/Unit1/tmp_net3:6 0.5
5 Reciever/Unit1/tmp_net3:7 Reciever/Unit1/tmp_net3:2 0.2825
6 Reciever/Unit1/tmp_net3:6 Reciever/Unit1/tmp_net3:5 1.580357
7 Reciever/Unit1/tmp_net3:8 Reciever/Unit1/tmp_net3:7 1

*END

